p cnf 6160 65801
1 2 3 4 0
-1 -2 0
-1 -3 0
-1 -4 0
-2 -3 0
-2 -4 0
-3 -4 0
5 6 7 8 0
-5 -6 0
-5 -7 0
-5 -8 0
-6 -7 0
-6 -8 0
-7 -8 0
9 10 11 12 0
-9 -10 0
-9 -11 0
-9 -12 0
-10 -11 0
-10 -12 0
-11 -12 0
13 14 15 16 0
-13 -14 0
-13 -15 0
-13 -16 0
-14 -15 0
-14 -16 0
-15 -16 0
17 18 19 20 0
-17 -18 0
-17 -19 0
-17 -20 0
-18 -19 0
-18 -20 0
-19 -20 0
21 22 23 24 0
-21 -22 0
-21 -23 0
-21 -24 0
-22 -23 0
-22 -24 0
-23 -24 0
25 26 27 28 0
-25 -26 0
-25 -27 0
-25 -28 0
-26 -27 0
-26 -28 0
-27 -28 0
29 30 31 32 0
-29 -30 0
-29 -31 0
-29 -32 0
-30 -31 0
-30 -32 0
-31 -32 0
33 34 35 36 0
-33 -34 0
-33 -35 0
-33 -36 0
-34 -35 0
-34 -36 0
-35 -36 0
37 38 39 40 0
-37 -38 0
-37 -39 0
-37 -40 0
-38 -39 0
-38 -40 0
-39 -40 0
41 42 43 44 0
-41 -42 0
-41 -43 0
-41 -44 0
-42 -43 0
-42 -44 0
-43 -44 0
45 46 47 48 0
-45 -46 0
-45 -47 0
-45 -48 0
-46 -47 0
-46 -48 0
-47 -48 0
49 50 51 52 0
-49 -50 0
-49 -51 0
-49 -52 0
-50 -51 0
-50 -52 0
-51 -52 0
53 54 55 56 0
-53 -54 0
-53 -55 0
-53 -56 0
-54 -55 0
-54 -56 0
-55 -56 0
57 58 59 60 0
-57 -58 0
-57 -59 0
-57 -60 0
-58 -59 0
-58 -60 0
-59 -60 0
61 62 63 64 0
-61 -62 0
-61 -63 0
-61 -64 0
-62 -63 0
-62 -64 0
-63 -64 0
65 66 67 68 0
-65 -66 0
-65 -67 0
-65 -68 0
-66 -67 0
-66 -68 0
-67 -68 0
69 70 71 72 0
-69 -70 0
-69 -71 0
-69 -72 0
-70 -71 0
-70 -72 0
-71 -72 0
73 74 75 76 0
-73 -74 0
-73 -75 0
-73 -76 0
-74 -75 0
-74 -76 0
-75 -76 0
77 78 79 80 0
-77 -78 0
-77 -79 0
-77 -80 0
-78 -79 0
-78 -80 0
-79 -80 0
81 82 83 84 0
-81 -82 0
-81 -83 0
-81 -84 0
-82 -83 0
-82 -84 0
-83 -84 0
85 86 87 88 0
-85 -86 0
-85 -87 0
-85 -88 0
-86 -87 0
-86 -88 0
-87 -88 0
89 90 91 92 0
-89 -90 0
-89 -91 0
-89 -92 0
-90 -91 0
-90 -92 0
-91 -92 0
93 94 95 96 0
-93 -94 0
-93 -95 0
-93 -96 0
-94 -95 0
-94 -96 0
-95 -96 0
97 98 99 100 0
-97 -98 0
-97 -99 0
-97 -100 0
-98 -99 0
-98 -100 0
-99 -100 0
101 102 103 104 0
-101 -102 0
-101 -103 0
-101 -104 0
-102 -103 0
-102 -104 0
-103 -104 0
105 106 107 108 0
-105 -106 0
-105 -107 0
-105 -108 0
-106 -107 0
-106 -108 0
-107 -108 0
109 110 111 112 0
-109 -110 0
-109 -111 0
-109 -112 0
-110 -111 0
-110 -112 0
-111 -112 0
113 114 115 116 0
-113 -114 0
-113 -115 0
-113 -116 0
-114 -115 0
-114 -116 0
-115 -116 0
117 118 119 120 0
-117 -118 0
-117 -119 0
-117 -120 0
-118 -119 0
-118 -120 0
-119 -120 0
121 122 123 124 0
-121 -122 0
-121 -123 0
-121 -124 0
-122 -123 0
-122 -124 0
-123 -124 0
125 126 127 128 0
-125 -126 0
-125 -127 0
-125 -128 0
-126 -127 0
-126 -128 0
-127 -128 0
129 130 131 132 0
-129 -130 0
-129 -131 0
-129 -132 0
-130 -131 0
-130 -132 0
-131 -132 0
133 134 135 136 0
-133 -134 0
-133 -135 0
-133 -136 0
-134 -135 0
-134 -136 0
-135 -136 0
137 138 139 140 0
-137 -138 0
-137 -139 0
-137 -140 0
-138 -139 0
-138 -140 0
-139 -140 0
141 142 143 144 0
-141 -142 0
-141 -143 0
-141 -144 0
-142 -143 0
-142 -144 0
-143 -144 0
145 146 147 148 0
-145 -146 0
-145 -147 0
-145 -148 0
-146 -147 0
-146 -148 0
-147 -148 0
149 150 151 152 0
-149 -150 0
-149 -151 0
-149 -152 0
-150 -151 0
-150 -152 0
-151 -152 0
153 154 155 156 0
-153 -154 0
-153 -155 0
-153 -156 0
-154 -155 0
-154 -156 0
-155 -156 0
157 158 159 160 0
-157 -158 0
-157 -159 0
-157 -160 0
-158 -159 0
-158 -160 0
-159 -160 0
161 162 163 164 0
-161 -162 0
-161 -163 0
-161 -164 0
-162 -163 0
-162 -164 0
-163 -164 0
165 166 167 168 0
-165 -166 0
-165 -167 0
-165 -168 0
-166 -167 0
-166 -168 0
-167 -168 0
169 170 171 172 0
-169 -170 0
-169 -171 0
-169 -172 0
-170 -171 0
-170 -172 0
-171 -172 0
173 174 175 176 0
-173 -174 0
-173 -175 0
-173 -176 0
-174 -175 0
-174 -176 0
-175 -176 0
177 178 179 180 0
-177 -178 0
-177 -179 0
-177 -180 0
-178 -179 0
-178 -180 0
-179 -180 0
181 182 183 184 0
-181 -182 0
-181 -183 0
-181 -184 0
-182 -183 0
-182 -184 0
-183 -184 0
185 186 187 188 0
-185 -186 0
-185 -187 0
-185 -188 0
-186 -187 0
-186 -188 0
-187 -188 0
189 190 191 192 0
-189 -190 0
-189 -191 0
-189 -192 0
-190 -191 0
-190 -192 0
-191 -192 0
193 194 195 196 0
-193 -194 0
-193 -195 0
-193 -196 0
-194 -195 0
-194 -196 0
-195 -196 0
197 198 199 200 0
-197 -198 0
-197 -199 0
-197 -200 0
-198 -199 0
-198 -200 0
-199 -200 0
201 202 203 204 0
-201 -202 0
-201 -203 0
-201 -204 0
-202 -203 0
-202 -204 0
-203 -204 0
205 206 207 208 0
-205 -206 0
-205 -207 0
-205 -208 0
-206 -207 0
-206 -208 0
-207 -208 0
209 210 211 212 0
-209 -210 0
-209 -211 0
-209 -212 0
-210 -211 0
-210 -212 0
-211 -212 0
213 214 215 216 0
-213 -214 0
-213 -215 0
-213 -216 0
-214 -215 0
-214 -216 0
-215 -216 0
217 218 219 220 0
-217 -218 0
-217 -219 0
-217 -220 0
-218 -219 0
-218 -220 0
-219 -220 0
221 222 223 224 0
-221 -222 0
-221 -223 0
-221 -224 0
-222 -223 0
-222 -224 0
-223 -224 0
225 226 227 228 0
-225 -226 0
-225 -227 0
-225 -228 0
-226 -227 0
-226 -228 0
-227 -228 0
229 230 231 232 0
-229 -230 0
-229 -231 0
-229 -232 0
-230 -231 0
-230 -232 0
-231 -232 0
233 234 235 236 0
-233 -234 0
-233 -235 0
-233 -236 0
-234 -235 0
-234 -236 0
-235 -236 0
237 238 239 240 0
-237 -238 0
-237 -239 0
-237 -240 0
-238 -239 0
-238 -240 0
-239 -240 0
241 242 243 244 0
-241 -242 0
-241 -243 0
-241 -244 0
-242 -243 0
-242 -244 0
-243 -244 0
245 246 247 248 0
-245 -246 0
-245 -247 0
-245 -248 0
-246 -247 0
-246 -248 0
-247 -248 0
249 250 251 252 0
-249 -250 0
-249 -251 0
-249 -252 0
-250 -251 0
-250 -252 0
-251 -252 0
253 254 255 256 0
-253 -254 0
-253 -255 0
-253 -256 0
-254 -255 0
-254 -256 0
-255 -256 0
257 258 259 260 0
-257 -258 0
-257 -259 0
-257 -260 0
-258 -259 0
-258 -260 0
-259 -260 0
261 262 263 264 0
-261 -262 0
-261 -263 0
-261 -264 0
-262 -263 0
-262 -264 0
-263 -264 0
265 266 267 268 0
-265 -266 0
-265 -267 0
-265 -268 0
-266 -267 0
-266 -268 0
-267 -268 0
269 270 271 272 0
-269 -270 0
-269 -271 0
-269 -272 0
-270 -271 0
-270 -272 0
-271 -272 0
273 274 275 276 0
-273 -274 0
-273 -275 0
-273 -276 0
-274 -275 0
-274 -276 0
-275 -276 0
277 278 279 280 0
-277 -278 0
-277 -279 0
-277 -280 0
-278 -279 0
-278 -280 0
-279 -280 0
281 282 283 284 0
-281 -282 0
-281 -283 0
-281 -284 0
-282 -283 0
-282 -284 0
-283 -284 0
285 286 287 288 0
-285 -286 0
-285 -287 0
-285 -288 0
-286 -287 0
-286 -288 0
-287 -288 0
289 290 291 292 0
-289 -290 0
-289 -291 0
-289 -292 0
-290 -291 0
-290 -292 0
-291 -292 0
293 294 295 296 0
-293 -294 0
-293 -295 0
-293 -296 0
-294 -295 0
-294 -296 0
-295 -296 0
297 298 299 300 0
-297 -298 0
-297 -299 0
-297 -300 0
-298 -299 0
-298 -300 0
-299 -300 0
301 302 303 304 0
-301 -302 0
-301 -303 0
-301 -304 0
-302 -303 0
-302 -304 0
-303 -304 0
305 306 307 308 0
-305 -306 0
-305 -307 0
-305 -308 0
-306 -307 0
-306 -308 0
-307 -308 0
309 310 311 312 0
-309 -310 0
-309 -311 0
-309 -312 0
-310 -311 0
-310 -312 0
-311 -312 0
313 314 315 316 0
-313 -314 0
-313 -315 0
-313 -316 0
-314 -315 0
-314 -316 0
-315 -316 0
317 318 319 320 0
-317 -318 0
-317 -319 0
-317 -320 0
-318 -319 0
-318 -320 0
-319 -320 0
321 322 323 324 0
-321 -322 0
-321 -323 0
-321 -324 0
-322 -323 0
-322 -324 0
-323 -324 0
325 326 327 328 0
-325 -326 0
-325 -327 0
-325 -328 0
-326 -327 0
-326 -328 0
-327 -328 0
329 330 331 332 0
-329 -330 0
-329 -331 0
-329 -332 0
-330 -331 0
-330 -332 0
-331 -332 0
333 334 335 336 0
-333 -334 0
-333 -335 0
-333 -336 0
-334 -335 0
-334 -336 0
-335 -336 0
337 338 339 340 0
-337 -338 0
-337 -339 0
-337 -340 0
-338 -339 0
-338 -340 0
-339 -340 0
341 342 343 344 0
-341 -342 0
-341 -343 0
-341 -344 0
-342 -343 0
-342 -344 0
-343 -344 0
345 346 347 348 0
-345 -346 0
-345 -347 0
-345 -348 0
-346 -347 0
-346 -348 0
-347 -348 0
349 350 351 352 0
-349 -350 0
-349 -351 0
-349 -352 0
-350 -351 0
-350 -352 0
-351 -352 0
353 354 355 356 0
-353 -354 0
-353 -355 0
-353 -356 0
-354 -355 0
-354 -356 0
-355 -356 0
357 358 359 360 0
-357 -358 0
-357 -359 0
-357 -360 0
-358 -359 0
-358 -360 0
-359 -360 0
361 362 363 364 0
-361 -362 0
-361 -363 0
-361 -364 0
-362 -363 0
-362 -364 0
-363 -364 0
365 366 367 368 0
-365 -366 0
-365 -367 0
-365 -368 0
-366 -367 0
-366 -368 0
-367 -368 0
369 370 371 372 0
-369 -370 0
-369 -371 0
-369 -372 0
-370 -371 0
-370 -372 0
-371 -372 0
373 374 375 376 0
-373 -374 0
-373 -375 0
-373 -376 0
-374 -375 0
-374 -376 0
-375 -376 0
377 378 379 380 0
-377 -378 0
-377 -379 0
-377 -380 0
-378 -379 0
-378 -380 0
-379 -380 0
381 382 383 384 0
-381 -382 0
-381 -383 0
-381 -384 0
-382 -383 0
-382 -384 0
-383 -384 0
385 386 387 388 0
-385 -386 0
-385 -387 0
-385 -388 0
-386 -387 0
-386 -388 0
-387 -388 0
389 390 391 392 0
-389 -390 0
-389 -391 0
-389 -392 0
-390 -391 0
-390 -392 0
-391 -392 0
393 394 395 396 0
-393 -394 0
-393 -395 0
-393 -396 0
-394 -395 0
-394 -396 0
-395 -396 0
397 398 399 400 0
-397 -398 0
-397 -399 0
-397 -400 0
-398 -399 0
-398 -400 0
-399 -400 0
401 402 403 404 0
-401 -402 0
-401 -403 0
-401 -404 0
-402 -403 0
-402 -404 0
-403 -404 0
405 406 407 408 0
-405 -406 0
-405 -407 0
-405 -408 0
-406 -407 0
-406 -408 0
-407 -408 0
409 410 411 412 0
-409 -410 0
-409 -411 0
-409 -412 0
-410 -411 0
-410 -412 0
-411 -412 0
413 414 415 416 0
-413 -414 0
-413 -415 0
-413 -416 0
-414 -415 0
-414 -416 0
-415 -416 0
417 418 419 420 0
-417 -418 0
-417 -419 0
-417 -420 0
-418 -419 0
-418 -420 0
-419 -420 0
421 422 423 424 0
-421 -422 0
-421 -423 0
-421 -424 0
-422 -423 0
-422 -424 0
-423 -424 0
425 426 427 428 0
-425 -426 0
-425 -427 0
-425 -428 0
-426 -427 0
-426 -428 0
-427 -428 0
429 430 431 432 0
-429 -430 0
-429 -431 0
-429 -432 0
-430 -431 0
-430 -432 0
-431 -432 0
433 434 435 436 0
-433 -434 0
-433 -435 0
-433 -436 0
-434 -435 0
-434 -436 0
-435 -436 0
437 438 439 440 0
-437 -438 0
-437 -439 0
-437 -440 0
-438 -439 0
-438 -440 0
-439 -440 0
441 442 443 444 0
-441 -442 0
-441 -443 0
-441 -444 0
-442 -443 0
-442 -444 0
-443 -444 0
445 446 447 448 0
-445 -446 0
-445 -447 0
-445 -448 0
-446 -447 0
-446 -448 0
-447 -448 0
449 450 451 452 0
-449 -450 0
-449 -451 0
-449 -452 0
-450 -451 0
-450 -452 0
-451 -452 0
453 454 455 456 0
-453 -454 0
-453 -455 0
-453 -456 0
-454 -455 0
-454 -456 0
-455 -456 0
457 458 459 460 0
-457 -458 0
-457 -459 0
-457 -460 0
-458 -459 0
-458 -460 0
-459 -460 0
461 462 463 464 0
-461 -462 0
-461 -463 0
-461 -464 0
-462 -463 0
-462 -464 0
-463 -464 0
465 466 467 468 0
-465 -466 0
-465 -467 0
-465 -468 0
-466 -467 0
-466 -468 0
-467 -468 0
469 470 471 472 0
-469 -470 0
-469 -471 0
-469 -472 0
-470 -471 0
-470 -472 0
-471 -472 0
473 474 475 476 0
-473 -474 0
-473 -475 0
-473 -476 0
-474 -475 0
-474 -476 0
-475 -476 0
477 478 479 480 0
-477 -478 0
-477 -479 0
-477 -480 0
-478 -479 0
-478 -480 0
-479 -480 0
481 482 483 484 0
-481 -482 0
-481 -483 0
-481 -484 0
-482 -483 0
-482 -484 0
-483 -484 0
485 486 487 488 0
-485 -486 0
-485 -487 0
-485 -488 0
-486 -487 0
-486 -488 0
-487 -488 0
489 490 491 492 0
-489 -490 0
-489 -491 0
-489 -492 0
-490 -491 0
-490 -492 0
-491 -492 0
493 494 495 496 0
-493 -494 0
-493 -495 0
-493 -496 0
-494 -495 0
-494 -496 0
-495 -496 0
497 498 499 500 0
-497 -498 0
-497 -499 0
-497 -500 0
-498 -499 0
-498 -500 0
-499 -500 0
501 502 503 504 0
-501 -502 0
-501 -503 0
-501 -504 0
-502 -503 0
-502 -504 0
-503 -504 0
505 506 507 508 0
-505 -506 0
-505 -507 0
-505 -508 0
-506 -507 0
-506 -508 0
-507 -508 0
509 510 511 512 0
-509 -510 0
-509 -511 0
-509 -512 0
-510 -511 0
-510 -512 0
-511 -512 0
513 514 515 516 0
-513 -514 0
-513 -515 0
-513 -516 0
-514 -515 0
-514 -516 0
-515 -516 0
517 518 519 520 0
-517 -518 0
-517 -519 0
-517 -520 0
-518 -519 0
-518 -520 0
-519 -520 0
521 522 523 524 0
-521 -522 0
-521 -523 0
-521 -524 0
-522 -523 0
-522 -524 0
-523 -524 0
525 526 527 528 0
-525 -526 0
-525 -527 0
-525 -528 0
-526 -527 0
-526 -528 0
-527 -528 0
529 530 531 532 0
-529 -530 0
-529 -531 0
-529 -532 0
-530 -531 0
-530 -532 0
-531 -532 0
533 534 535 536 0
-533 -534 0
-533 -535 0
-533 -536 0
-534 -535 0
-534 -536 0
-535 -536 0
537 538 539 540 0
-537 -538 0
-537 -539 0
-537 -540 0
-538 -539 0
-538 -540 0
-539 -540 0
541 542 543 544 0
-541 -542 0
-541 -543 0
-541 -544 0
-542 -543 0
-542 -544 0
-543 -544 0
545 546 547 548 0
-545 -546 0
-545 -547 0
-545 -548 0
-546 -547 0
-546 -548 0
-547 -548 0
549 550 551 552 0
-549 -550 0
-549 -551 0
-549 -552 0
-550 -551 0
-550 -552 0
-551 -552 0
553 554 555 556 0
-553 -554 0
-553 -555 0
-553 -556 0
-554 -555 0
-554 -556 0
-555 -556 0
557 558 559 560 0
-557 -558 0
-557 -559 0
-557 -560 0
-558 -559 0
-558 -560 0
-559 -560 0
561 562 563 564 0
-561 -562 0
-561 -563 0
-561 -564 0
-562 -563 0
-562 -564 0
-563 -564 0
565 566 567 568 0
-565 -566 0
-565 -567 0
-565 -568 0
-566 -567 0
-566 -568 0
-567 -568 0
569 570 571 572 0
-569 -570 0
-569 -571 0
-569 -572 0
-570 -571 0
-570 -572 0
-571 -572 0
573 574 575 576 0
-573 -574 0
-573 -575 0
-573 -576 0
-574 -575 0
-574 -576 0
-575 -576 0
577 578 579 580 0
-577 -578 0
-577 -579 0
-577 -580 0
-578 -579 0
-578 -580 0
-579 -580 0
581 582 583 584 0
-581 -582 0
-581 -583 0
-581 -584 0
-582 -583 0
-582 -584 0
-583 -584 0
585 586 587 588 0
-585 -586 0
-585 -587 0
-585 -588 0
-586 -587 0
-586 -588 0
-587 -588 0
589 590 591 592 0
-589 -590 0
-589 -591 0
-589 -592 0
-590 -591 0
-590 -592 0
-591 -592 0
593 594 595 596 0
-593 -594 0
-593 -595 0
-593 -596 0
-594 -595 0
-594 -596 0
-595 -596 0
597 598 599 600 0
-597 -598 0
-597 -599 0
-597 -600 0
-598 -599 0
-598 -600 0
-599 -600 0
601 602 603 604 0
-601 -602 0
-601 -603 0
-601 -604 0
-602 -603 0
-602 -604 0
-603 -604 0
605 606 607 608 0
-605 -606 0
-605 -607 0
-605 -608 0
-606 -607 0
-606 -608 0
-607 -608 0
609 610 611 612 0
-609 -610 0
-609 -611 0
-609 -612 0
-610 -611 0
-610 -612 0
-611 -612 0
613 614 615 616 0
-613 -614 0
-613 -615 0
-613 -616 0
-614 -615 0
-614 -616 0
-615 -616 0
617 618 619 620 0
-617 -618 0
-617 -619 0
-617 -620 0
-618 -619 0
-618 -620 0
-619 -620 0
621 622 623 624 0
-621 -622 0
-621 -623 0
-621 -624 0
-622 -623 0
-622 -624 0
-623 -624 0
625 626 627 628 0
-625 -626 0
-625 -627 0
-625 -628 0
-626 -627 0
-626 -628 0
-627 -628 0
629 630 631 632 0
-629 -630 0
-629 -631 0
-629 -632 0
-630 -631 0
-630 -632 0
-631 -632 0
633 634 635 636 0
-633 -634 0
-633 -635 0
-633 -636 0
-634 -635 0
-634 -636 0
-635 -636 0
637 638 639 640 0
-637 -638 0
-637 -639 0
-637 -640 0
-638 -639 0
-638 -640 0
-639 -640 0
641 642 643 644 0
-641 -642 0
-641 -643 0
-641 -644 0
-642 -643 0
-642 -644 0
-643 -644 0
645 646 647 648 0
-645 -646 0
-645 -647 0
-645 -648 0
-646 -647 0
-646 -648 0
-647 -648 0
649 650 651 652 0
-649 -650 0
-649 -651 0
-649 -652 0
-650 -651 0
-650 -652 0
-651 -652 0
653 654 655 656 0
-653 -654 0
-653 -655 0
-653 -656 0
-654 -655 0
-654 -656 0
-655 -656 0
657 658 659 660 0
-657 -658 0
-657 -659 0
-657 -660 0
-658 -659 0
-658 -660 0
-659 -660 0
661 662 663 664 0
-661 -662 0
-661 -663 0
-661 -664 0
-662 -663 0
-662 -664 0
-663 -664 0
665 666 667 668 0
-665 -666 0
-665 -667 0
-665 -668 0
-666 -667 0
-666 -668 0
-667 -668 0
669 670 671 672 0
-669 -670 0
-669 -671 0
-669 -672 0
-670 -671 0
-670 -672 0
-671 -672 0
673 674 675 676 0
-673 -674 0
-673 -675 0
-673 -676 0
-674 -675 0
-674 -676 0
-675 -676 0
677 678 679 680 0
-677 -678 0
-677 -679 0
-677 -680 0
-678 -679 0
-678 -680 0
-679 -680 0
681 682 683 684 0
-681 -682 0
-681 -683 0
-681 -684 0
-682 -683 0
-682 -684 0
-683 -684 0
685 686 687 688 0
-685 -686 0
-685 -687 0
-685 -688 0
-686 -687 0
-686 -688 0
-687 -688 0
689 690 691 692 0
-689 -690 0
-689 -691 0
-689 -692 0
-690 -691 0
-690 -692 0
-691 -692 0
693 694 695 696 0
-693 -694 0
-693 -695 0
-693 -696 0
-694 -695 0
-694 -696 0
-695 -696 0
697 698 699 700 0
-697 -698 0
-697 -699 0
-697 -700 0
-698 -699 0
-698 -700 0
-699 -700 0
701 702 703 704 0
-701 -702 0
-701 -703 0
-701 -704 0
-702 -703 0
-702 -704 0
-703 -704 0
705 706 707 708 0
-705 -706 0
-705 -707 0
-705 -708 0
-706 -707 0
-706 -708 0
-707 -708 0
709 710 711 712 0
-709 -710 0
-709 -711 0
-709 -712 0
-710 -711 0
-710 -712 0
-711 -712 0
713 714 715 716 0
-713 -714 0
-713 -715 0
-713 -716 0
-714 -715 0
-714 -716 0
-715 -716 0
717 718 719 720 0
-717 -718 0
-717 -719 0
-717 -720 0
-718 -719 0
-718 -720 0
-719 -720 0
721 722 723 724 0
-721 -722 0
-721 -723 0
-721 -724 0
-722 -723 0
-722 -724 0
-723 -724 0
725 726 727 728 0
-725 -726 0
-725 -727 0
-725 -728 0
-726 -727 0
-726 -728 0
-727 -728 0
729 730 731 732 0
-729 -730 0
-729 -731 0
-729 -732 0
-730 -731 0
-730 -732 0
-731 -732 0
733 734 735 736 0
-733 -734 0
-733 -735 0
-733 -736 0
-734 -735 0
-734 -736 0
-735 -736 0
737 738 739 740 0
-737 -738 0
-737 -739 0
-737 -740 0
-738 -739 0
-738 -740 0
-739 -740 0
741 742 743 744 0
-741 -742 0
-741 -743 0
-741 -744 0
-742 -743 0
-742 -744 0
-743 -744 0
745 746 747 748 0
-745 -746 0
-745 -747 0
-745 -748 0
-746 -747 0
-746 -748 0
-747 -748 0
749 750 751 752 0
-749 -750 0
-749 -751 0
-749 -752 0
-750 -751 0
-750 -752 0
-751 -752 0
753 754 755 756 0
-753 -754 0
-753 -755 0
-753 -756 0
-754 -755 0
-754 -756 0
-755 -756 0
757 758 759 760 0
-757 -758 0
-757 -759 0
-757 -760 0
-758 -759 0
-758 -760 0
-759 -760 0
761 762 763 764 0
-761 -762 0
-761 -763 0
-761 -764 0
-762 -763 0
-762 -764 0
-763 -764 0
765 766 767 768 0
-765 -766 0
-765 -767 0
-765 -768 0
-766 -767 0
-766 -768 0
-767 -768 0
769 770 771 772 0
-769 -770 0
-769 -771 0
-769 -772 0
-770 -771 0
-770 -772 0
-771 -772 0
773 774 775 776 0
-773 -774 0
-773 -775 0
-773 -776 0
-774 -775 0
-774 -776 0
-775 -776 0
777 778 779 780 0
-777 -778 0
-777 -779 0
-777 -780 0
-778 -779 0
-778 -780 0
-779 -780 0
781 782 783 784 0
-781 -782 0
-781 -783 0
-781 -784 0
-782 -783 0
-782 -784 0
-783 -784 0
785 786 787 788 0
-785 -786 0
-785 -787 0
-785 -788 0
-786 -787 0
-786 -788 0
-787 -788 0
789 790 791 792 0
-789 -790 0
-789 -791 0
-789 -792 0
-790 -791 0
-790 -792 0
-791 -792 0
793 794 795 796 0
-793 -794 0
-793 -795 0
-793 -796 0
-794 -795 0
-794 -796 0
-795 -796 0
797 798 799 800 0
-797 -798 0
-797 -799 0
-797 -800 0
-798 -799 0
-798 -800 0
-799 -800 0
801 802 803 804 0
-801 -802 0
-801 -803 0
-801 -804 0
-802 -803 0
-802 -804 0
-803 -804 0
805 806 807 808 0
-805 -806 0
-805 -807 0
-805 -808 0
-806 -807 0
-806 -808 0
-807 -808 0
809 810 811 812 0
-809 -810 0
-809 -811 0
-809 -812 0
-810 -811 0
-810 -812 0
-811 -812 0
813 814 815 816 0
-813 -814 0
-813 -815 0
-813 -816 0
-814 -815 0
-814 -816 0
-815 -816 0
817 818 819 820 0
-817 -818 0
-817 -819 0
-817 -820 0
-818 -819 0
-818 -820 0
-819 -820 0
821 822 823 824 0
-821 -822 0
-821 -823 0
-821 -824 0
-822 -823 0
-822 -824 0
-823 -824 0
825 826 827 828 0
-825 -826 0
-825 -827 0
-825 -828 0
-826 -827 0
-826 -828 0
-827 -828 0
829 830 831 832 0
-829 -830 0
-829 -831 0
-829 -832 0
-830 -831 0
-830 -832 0
-831 -832 0
833 834 835 836 0
-833 -834 0
-833 -835 0
-833 -836 0
-834 -835 0
-834 -836 0
-835 -836 0
837 838 839 840 0
-837 -838 0
-837 -839 0
-837 -840 0
-838 -839 0
-838 -840 0
-839 -840 0
841 842 843 844 0
-841 -842 0
-841 -843 0
-841 -844 0
-842 -843 0
-842 -844 0
-843 -844 0
845 846 847 848 0
-845 -846 0
-845 -847 0
-845 -848 0
-846 -847 0
-846 -848 0
-847 -848 0
849 850 851 852 0
-849 -850 0
-849 -851 0
-849 -852 0
-850 -851 0
-850 -852 0
-851 -852 0
853 854 855 856 0
-853 -854 0
-853 -855 0
-853 -856 0
-854 -855 0
-854 -856 0
-855 -856 0
857 858 859 860 0
-857 -858 0
-857 -859 0
-857 -860 0
-858 -859 0
-858 -860 0
-859 -860 0
861 862 863 864 0
-861 -862 0
-861 -863 0
-861 -864 0
-862 -863 0
-862 -864 0
-863 -864 0
865 866 867 868 0
-865 -866 0
-865 -867 0
-865 -868 0
-866 -867 0
-866 -868 0
-867 -868 0
869 870 871 872 0
-869 -870 0
-869 -871 0
-869 -872 0
-870 -871 0
-870 -872 0
-871 -872 0
873 874 875 876 0
-873 -874 0
-873 -875 0
-873 -876 0
-874 -875 0
-874 -876 0
-875 -876 0
877 878 879 880 0
-877 -878 0
-877 -879 0
-877 -880 0
-878 -879 0
-878 -880 0
-879 -880 0
881 882 883 884 0
-881 -882 0
-881 -883 0
-881 -884 0
-882 -883 0
-882 -884 0
-883 -884 0
885 886 887 888 0
-885 -886 0
-885 -887 0
-885 -888 0
-886 -887 0
-886 -888 0
-887 -888 0
889 890 891 892 0
-889 -890 0
-889 -891 0
-889 -892 0
-890 -891 0
-890 -892 0
-891 -892 0
893 894 895 896 0
-893 -894 0
-893 -895 0
-893 -896 0
-894 -895 0
-894 -896 0
-895 -896 0
897 898 899 900 0
-897 -898 0
-897 -899 0
-897 -900 0
-898 -899 0
-898 -900 0
-899 -900 0
901 902 903 904 0
-901 -902 0
-901 -903 0
-901 -904 0
-902 -903 0
-902 -904 0
-903 -904 0
905 906 907 908 0
-905 -906 0
-905 -907 0
-905 -908 0
-906 -907 0
-906 -908 0
-907 -908 0
909 910 911 912 0
-909 -910 0
-909 -911 0
-909 -912 0
-910 -911 0
-910 -912 0
-911 -912 0
913 914 915 916 0
-913 -914 0
-913 -915 0
-913 -916 0
-914 -915 0
-914 -916 0
-915 -916 0
917 918 919 920 0
-917 -918 0
-917 -919 0
-917 -920 0
-918 -919 0
-918 -920 0
-919 -920 0
921 922 923 924 0
-921 -922 0
-921 -923 0
-921 -924 0
-922 -923 0
-922 -924 0
-923 -924 0
925 926 927 928 0
-925 -926 0
-925 -927 0
-925 -928 0
-926 -927 0
-926 -928 0
-927 -928 0
929 930 931 932 0
-929 -930 0
-929 -931 0
-929 -932 0
-930 -931 0
-930 -932 0
-931 -932 0
933 934 935 936 0
-933 -934 0
-933 -935 0
-933 -936 0
-934 -935 0
-934 -936 0
-935 -936 0
937 938 939 940 0
-937 -938 0
-937 -939 0
-937 -940 0
-938 -939 0
-938 -940 0
-939 -940 0
941 942 943 944 0
-941 -942 0
-941 -943 0
-941 -944 0
-942 -943 0
-942 -944 0
-943 -944 0
945 946 947 948 0
-945 -946 0
-945 -947 0
-945 -948 0
-946 -947 0
-946 -948 0
-947 -948 0
949 950 951 952 0
-949 -950 0
-949 -951 0
-949 -952 0
-950 -951 0
-950 -952 0
-951 -952 0
953 954 955 956 0
-953 -954 0
-953 -955 0
-953 -956 0
-954 -955 0
-954 -956 0
-955 -956 0
957 958 959 960 0
-957 -958 0
-957 -959 0
-957 -960 0
-958 -959 0
-958 -960 0
-959 -960 0
961 962 963 964 0
-961 -962 0
-961 -963 0
-961 -964 0
-962 -963 0
-962 -964 0
-963 -964 0
965 966 967 968 0
-965 -966 0
-965 -967 0
-965 -968 0
-966 -967 0
-966 -968 0
-967 -968 0
969 970 971 972 0
-969 -970 0
-969 -971 0
-969 -972 0
-970 -971 0
-970 -972 0
-971 -972 0
973 974 975 976 0
-973 -974 0
-973 -975 0
-973 -976 0
-974 -975 0
-974 -976 0
-975 -976 0
977 978 979 980 0
-977 -978 0
-977 -979 0
-977 -980 0
-978 -979 0
-978 -980 0
-979 -980 0
981 982 983 984 0
-981 -982 0
-981 -983 0
-981 -984 0
-982 -983 0
-982 -984 0
-983 -984 0
985 986 987 988 0
-985 -986 0
-985 -987 0
-985 -988 0
-986 -987 0
-986 -988 0
-987 -988 0
989 990 991 992 0
-989 -990 0
-989 -991 0
-989 -992 0
-990 -991 0
-990 -992 0
-991 -992 0
993 994 995 996 0
-993 -994 0
-993 -995 0
-993 -996 0
-994 -995 0
-994 -996 0
-995 -996 0
997 998 999 1000 0
-997 -998 0
-997 -999 0
-997 -1000 0
-998 -999 0
-998 -1000 0
-999 -1000 0
1001 1002 1003 1004 0
-1001 -1002 0
-1001 -1003 0
-1001 -1004 0
-1002 -1003 0
-1002 -1004 0
-1003 -1004 0
1005 1006 1007 1008 0
-1005 -1006 0
-1005 -1007 0
-1005 -1008 0
-1006 -1007 0
-1006 -1008 0
-1007 -1008 0
1009 1010 1011 1012 0
-1009 -1010 0
-1009 -1011 0
-1009 -1012 0
-1010 -1011 0
-1010 -1012 0
-1011 -1012 0
1013 1014 1015 1016 0
-1013 -1014 0
-1013 -1015 0
-1013 -1016 0
-1014 -1015 0
-1014 -1016 0
-1015 -1016 0
1017 1018 1019 1020 0
-1017 -1018 0
-1017 -1019 0
-1017 -1020 0
-1018 -1019 0
-1018 -1020 0
-1019 -1020 0
1021 1022 1023 1024 0
-1021 -1022 0
-1021 -1023 0
-1021 -1024 0
-1022 -1023 0
-1022 -1024 0
-1023 -1024 0
1025 1026 1027 1028 0
-1025 -1026 0
-1025 -1027 0
-1025 -1028 0
-1026 -1027 0
-1026 -1028 0
-1027 -1028 0
1029 1030 1031 1032 0
-1029 -1030 0
-1029 -1031 0
-1029 -1032 0
-1030 -1031 0
-1030 -1032 0
-1031 -1032 0
1033 1034 1035 1036 0
-1033 -1034 0
-1033 -1035 0
-1033 -1036 0
-1034 -1035 0
-1034 -1036 0
-1035 -1036 0
1037 1038 1039 1040 0
-1037 -1038 0
-1037 -1039 0
-1037 -1040 0
-1038 -1039 0
-1038 -1040 0
-1039 -1040 0
1041 1042 1043 1044 0
-1041 -1042 0
-1041 -1043 0
-1041 -1044 0
-1042 -1043 0
-1042 -1044 0
-1043 -1044 0
1045 1046 1047 1048 0
-1045 -1046 0
-1045 -1047 0
-1045 -1048 0
-1046 -1047 0
-1046 -1048 0
-1047 -1048 0
1049 1050 1051 1052 0
-1049 -1050 0
-1049 -1051 0
-1049 -1052 0
-1050 -1051 0
-1050 -1052 0
-1051 -1052 0
1053 1054 1055 1056 0
-1053 -1054 0
-1053 -1055 0
-1053 -1056 0
-1054 -1055 0
-1054 -1056 0
-1055 -1056 0
1057 1058 1059 1060 0
-1057 -1058 0
-1057 -1059 0
-1057 -1060 0
-1058 -1059 0
-1058 -1060 0
-1059 -1060 0
1061 1062 1063 1064 0
-1061 -1062 0
-1061 -1063 0
-1061 -1064 0
-1062 -1063 0
-1062 -1064 0
-1063 -1064 0
1065 1066 1067 1068 0
-1065 -1066 0
-1065 -1067 0
-1065 -1068 0
-1066 -1067 0
-1066 -1068 0
-1067 -1068 0
1069 1070 1071 1072 0
-1069 -1070 0
-1069 -1071 0
-1069 -1072 0
-1070 -1071 0
-1070 -1072 0
-1071 -1072 0
1073 1074 1075 1076 0
-1073 -1074 0
-1073 -1075 0
-1073 -1076 0
-1074 -1075 0
-1074 -1076 0
-1075 -1076 0
1077 1078 1079 1080 0
-1077 -1078 0
-1077 -1079 0
-1077 -1080 0
-1078 -1079 0
-1078 -1080 0
-1079 -1080 0
1081 1082 1083 1084 0
-1081 -1082 0
-1081 -1083 0
-1081 -1084 0
-1082 -1083 0
-1082 -1084 0
-1083 -1084 0
1085 1086 1087 1088 0
-1085 -1086 0
-1085 -1087 0
-1085 -1088 0
-1086 -1087 0
-1086 -1088 0
-1087 -1088 0
1089 1090 1091 1092 0
-1089 -1090 0
-1089 -1091 0
-1089 -1092 0
-1090 -1091 0
-1090 -1092 0
-1091 -1092 0
1093 1094 1095 1096 0
-1093 -1094 0
-1093 -1095 0
-1093 -1096 0
-1094 -1095 0
-1094 -1096 0
-1095 -1096 0
1097 1098 1099 1100 0
-1097 -1098 0
-1097 -1099 0
-1097 -1100 0
-1098 -1099 0
-1098 -1100 0
-1099 -1100 0
1101 1102 1103 1104 0
-1101 -1102 0
-1101 -1103 0
-1101 -1104 0
-1102 -1103 0
-1102 -1104 0
-1103 -1104 0
1105 1106 1107 1108 0
-1105 -1106 0
-1105 -1107 0
-1105 -1108 0
-1106 -1107 0
-1106 -1108 0
-1107 -1108 0
1109 1110 1111 1112 0
-1109 -1110 0
-1109 -1111 0
-1109 -1112 0
-1110 -1111 0
-1110 -1112 0
-1111 -1112 0
1113 1114 1115 1116 0
-1113 -1114 0
-1113 -1115 0
-1113 -1116 0
-1114 -1115 0
-1114 -1116 0
-1115 -1116 0
1117 1118 1119 1120 0
-1117 -1118 0
-1117 -1119 0
-1117 -1120 0
-1118 -1119 0
-1118 -1120 0
-1119 -1120 0
1121 1122 1123 1124 0
-1121 -1122 0
-1121 -1123 0
-1121 -1124 0
-1122 -1123 0
-1122 -1124 0
-1123 -1124 0
1125 1126 1127 1128 0
-1125 -1126 0
-1125 -1127 0
-1125 -1128 0
-1126 -1127 0
-1126 -1128 0
-1127 -1128 0
1129 1130 1131 1132 0
-1129 -1130 0
-1129 -1131 0
-1129 -1132 0
-1130 -1131 0
-1130 -1132 0
-1131 -1132 0
1133 1134 1135 1136 0
-1133 -1134 0
-1133 -1135 0
-1133 -1136 0
-1134 -1135 0
-1134 -1136 0
-1135 -1136 0
1137 1138 1139 1140 0
-1137 -1138 0
-1137 -1139 0
-1137 -1140 0
-1138 -1139 0
-1138 -1140 0
-1139 -1140 0
1141 1142 1143 1144 0
-1141 -1142 0
-1141 -1143 0
-1141 -1144 0
-1142 -1143 0
-1142 -1144 0
-1143 -1144 0
1145 1146 1147 1148 0
-1145 -1146 0
-1145 -1147 0
-1145 -1148 0
-1146 -1147 0
-1146 -1148 0
-1147 -1148 0
1149 1150 1151 1152 0
-1149 -1150 0
-1149 -1151 0
-1149 -1152 0
-1150 -1151 0
-1150 -1152 0
-1151 -1152 0
1153 1154 1155 1156 0
-1153 -1154 0
-1153 -1155 0
-1153 -1156 0
-1154 -1155 0
-1154 -1156 0
-1155 -1156 0
1157 1158 1159 1160 0
-1157 -1158 0
-1157 -1159 0
-1157 -1160 0
-1158 -1159 0
-1158 -1160 0
-1159 -1160 0
1161 1162 1163 1164 0
-1161 -1162 0
-1161 -1163 0
-1161 -1164 0
-1162 -1163 0
-1162 -1164 0
-1163 -1164 0
1165 1166 1167 1168 0
-1165 -1166 0
-1165 -1167 0
-1165 -1168 0
-1166 -1167 0
-1166 -1168 0
-1167 -1168 0
1169 1170 1171 1172 0
-1169 -1170 0
-1169 -1171 0
-1169 -1172 0
-1170 -1171 0
-1170 -1172 0
-1171 -1172 0
1173 1174 1175 1176 0
-1173 -1174 0
-1173 -1175 0
-1173 -1176 0
-1174 -1175 0
-1174 -1176 0
-1175 -1176 0
1177 1178 1179 1180 0
-1177 -1178 0
-1177 -1179 0
-1177 -1180 0
-1178 -1179 0
-1178 -1180 0
-1179 -1180 0
1181 1182 1183 1184 0
-1181 -1182 0
-1181 -1183 0
-1181 -1184 0
-1182 -1183 0
-1182 -1184 0
-1183 -1184 0
1185 1186 1187 1188 0
-1185 -1186 0
-1185 -1187 0
-1185 -1188 0
-1186 -1187 0
-1186 -1188 0
-1187 -1188 0
1189 1190 1191 1192 0
-1189 -1190 0
-1189 -1191 0
-1189 -1192 0
-1190 -1191 0
-1190 -1192 0
-1191 -1192 0
1193 1194 1195 1196 0
-1193 -1194 0
-1193 -1195 0
-1193 -1196 0
-1194 -1195 0
-1194 -1196 0
-1195 -1196 0
1197 1198 1199 1200 0
-1197 -1198 0
-1197 -1199 0
-1197 -1200 0
-1198 -1199 0
-1198 -1200 0
-1199 -1200 0
1201 1202 1203 1204 0
-1201 -1202 0
-1201 -1203 0
-1201 -1204 0
-1202 -1203 0
-1202 -1204 0
-1203 -1204 0
1205 1206 1207 1208 0
-1205 -1206 0
-1205 -1207 0
-1205 -1208 0
-1206 -1207 0
-1206 -1208 0
-1207 -1208 0
1209 1210 1211 1212 0
-1209 -1210 0
-1209 -1211 0
-1209 -1212 0
-1210 -1211 0
-1210 -1212 0
-1211 -1212 0
1213 1214 1215 1216 0
-1213 -1214 0
-1213 -1215 0
-1213 -1216 0
-1214 -1215 0
-1214 -1216 0
-1215 -1216 0
1217 1218 1219 1220 0
-1217 -1218 0
-1217 -1219 0
-1217 -1220 0
-1218 -1219 0
-1218 -1220 0
-1219 -1220 0
1221 1222 1223 1224 0
-1221 -1222 0
-1221 -1223 0
-1221 -1224 0
-1222 -1223 0
-1222 -1224 0
-1223 -1224 0
1225 1226 1227 1228 0
-1225 -1226 0
-1225 -1227 0
-1225 -1228 0
-1226 -1227 0
-1226 -1228 0
-1227 -1228 0
1229 1230 1231 1232 0
-1229 -1230 0
-1229 -1231 0
-1229 -1232 0
-1230 -1231 0
-1230 -1232 0
-1231 -1232 0
1233 1234 1235 1236 0
-1233 -1234 0
-1233 -1235 0
-1233 -1236 0
-1234 -1235 0
-1234 -1236 0
-1235 -1236 0
1237 1238 1239 1240 0
-1237 -1238 0
-1237 -1239 0
-1237 -1240 0
-1238 -1239 0
-1238 -1240 0
-1239 -1240 0
1241 1242 1243 1244 0
-1241 -1242 0
-1241 -1243 0
-1241 -1244 0
-1242 -1243 0
-1242 -1244 0
-1243 -1244 0
1245 1246 1247 1248 0
-1245 -1246 0
-1245 -1247 0
-1245 -1248 0
-1246 -1247 0
-1246 -1248 0
-1247 -1248 0
1249 1250 1251 1252 0
-1249 -1250 0
-1249 -1251 0
-1249 -1252 0
-1250 -1251 0
-1250 -1252 0
-1251 -1252 0
1253 1254 1255 1256 0
-1253 -1254 0
-1253 -1255 0
-1253 -1256 0
-1254 -1255 0
-1254 -1256 0
-1255 -1256 0
1257 1258 1259 1260 0
-1257 -1258 0
-1257 -1259 0
-1257 -1260 0
-1258 -1259 0
-1258 -1260 0
-1259 -1260 0
1261 1262 1263 1264 0
-1261 -1262 0
-1261 -1263 0
-1261 -1264 0
-1262 -1263 0
-1262 -1264 0
-1263 -1264 0
1265 1266 1267 1268 0
-1265 -1266 0
-1265 -1267 0
-1265 -1268 0
-1266 -1267 0
-1266 -1268 0
-1267 -1268 0
1269 1270 1271 1272 0
-1269 -1270 0
-1269 -1271 0
-1269 -1272 0
-1270 -1271 0
-1270 -1272 0
-1271 -1272 0
1273 1274 1275 1276 0
-1273 -1274 0
-1273 -1275 0
-1273 -1276 0
-1274 -1275 0
-1274 -1276 0
-1275 -1276 0
1277 1278 1279 1280 0
-1277 -1278 0
-1277 -1279 0
-1277 -1280 0
-1278 -1279 0
-1278 -1280 0
-1279 -1280 0
1281 1282 1283 1284 0
-1281 -1282 0
-1281 -1283 0
-1281 -1284 0
-1282 -1283 0
-1282 -1284 0
-1283 -1284 0
1285 1286 1287 1288 0
-1285 -1286 0
-1285 -1287 0
-1285 -1288 0
-1286 -1287 0
-1286 -1288 0
-1287 -1288 0
1289 1290 1291 1292 0
-1289 -1290 0
-1289 -1291 0
-1289 -1292 0
-1290 -1291 0
-1290 -1292 0
-1291 -1292 0
1293 1294 1295 1296 0
-1293 -1294 0
-1293 -1295 0
-1293 -1296 0
-1294 -1295 0
-1294 -1296 0
-1295 -1296 0
1297 1298 1299 1300 0
-1297 -1298 0
-1297 -1299 0
-1297 -1300 0
-1298 -1299 0
-1298 -1300 0
-1299 -1300 0
1301 1302 1303 1304 0
-1301 -1302 0
-1301 -1303 0
-1301 -1304 0
-1302 -1303 0
-1302 -1304 0
-1303 -1304 0
1305 1306 1307 1308 0
-1305 -1306 0
-1305 -1307 0
-1305 -1308 0
-1306 -1307 0
-1306 -1308 0
-1307 -1308 0
1309 1310 1311 1312 0
-1309 -1310 0
-1309 -1311 0
-1309 -1312 0
-1310 -1311 0
-1310 -1312 0
-1311 -1312 0
1313 1314 1315 1316 0
-1313 -1314 0
-1313 -1315 0
-1313 -1316 0
-1314 -1315 0
-1314 -1316 0
-1315 -1316 0
1317 1318 1319 1320 0
-1317 -1318 0
-1317 -1319 0
-1317 -1320 0
-1318 -1319 0
-1318 -1320 0
-1319 -1320 0
1321 1322 1323 1324 0
-1321 -1322 0
-1321 -1323 0
-1321 -1324 0
-1322 -1323 0
-1322 -1324 0
-1323 -1324 0
1325 1326 1327 1328 0
-1325 -1326 0
-1325 -1327 0
-1325 -1328 0
-1326 -1327 0
-1326 -1328 0
-1327 -1328 0
1329 1330 1331 1332 0
-1329 -1330 0
-1329 -1331 0
-1329 -1332 0
-1330 -1331 0
-1330 -1332 0
-1331 -1332 0
1333 1334 1335 1336 0
-1333 -1334 0
-1333 -1335 0
-1333 -1336 0
-1334 -1335 0
-1334 -1336 0
-1335 -1336 0
1337 1338 1339 1340 0
-1337 -1338 0
-1337 -1339 0
-1337 -1340 0
-1338 -1339 0
-1338 -1340 0
-1339 -1340 0
1341 1342 1343 1344 0
-1341 -1342 0
-1341 -1343 0
-1341 -1344 0
-1342 -1343 0
-1342 -1344 0
-1343 -1344 0
1345 1346 1347 1348 0
-1345 -1346 0
-1345 -1347 0
-1345 -1348 0
-1346 -1347 0
-1346 -1348 0
-1347 -1348 0
1349 1350 1351 1352 0
-1349 -1350 0
-1349 -1351 0
-1349 -1352 0
-1350 -1351 0
-1350 -1352 0
-1351 -1352 0
1353 1354 1355 1356 0
-1353 -1354 0
-1353 -1355 0
-1353 -1356 0
-1354 -1355 0
-1354 -1356 0
-1355 -1356 0
1357 1358 1359 1360 0
-1357 -1358 0
-1357 -1359 0
-1357 -1360 0
-1358 -1359 0
-1358 -1360 0
-1359 -1360 0
1361 1362 1363 1364 0
-1361 -1362 0
-1361 -1363 0
-1361 -1364 0
-1362 -1363 0
-1362 -1364 0
-1363 -1364 0
1365 1366 1367 1368 0
-1365 -1366 0
-1365 -1367 0
-1365 -1368 0
-1366 -1367 0
-1366 -1368 0
-1367 -1368 0
1369 1370 1371 1372 0
-1369 -1370 0
-1369 -1371 0
-1369 -1372 0
-1370 -1371 0
-1370 -1372 0
-1371 -1372 0
1373 1374 1375 1376 0
-1373 -1374 0
-1373 -1375 0
-1373 -1376 0
-1374 -1375 0
-1374 -1376 0
-1375 -1376 0
1377 1378 1379 1380 0
-1377 -1378 0
-1377 -1379 0
-1377 -1380 0
-1378 -1379 0
-1378 -1380 0
-1379 -1380 0
1381 1382 1383 1384 0
-1381 -1382 0
-1381 -1383 0
-1381 -1384 0
-1382 -1383 0
-1382 -1384 0
-1383 -1384 0
1385 1386 1387 1388 0
-1385 -1386 0
-1385 -1387 0
-1385 -1388 0
-1386 -1387 0
-1386 -1388 0
-1387 -1388 0
1389 1390 1391 1392 0
-1389 -1390 0
-1389 -1391 0
-1389 -1392 0
-1390 -1391 0
-1390 -1392 0
-1391 -1392 0
1393 1394 1395 1396 0
-1393 -1394 0
-1393 -1395 0
-1393 -1396 0
-1394 -1395 0
-1394 -1396 0
-1395 -1396 0
1397 1398 1399 1400 0
-1397 -1398 0
-1397 -1399 0
-1397 -1400 0
-1398 -1399 0
-1398 -1400 0
-1399 -1400 0
1401 1402 1403 1404 0
-1401 -1402 0
-1401 -1403 0
-1401 -1404 0
-1402 -1403 0
-1402 -1404 0
-1403 -1404 0
1405 1406 1407 1408 0
-1405 -1406 0
-1405 -1407 0
-1405 -1408 0
-1406 -1407 0
-1406 -1408 0
-1407 -1408 0
1409 1410 1411 1412 0
-1409 -1410 0
-1409 -1411 0
-1409 -1412 0
-1410 -1411 0
-1410 -1412 0
-1411 -1412 0
1413 1414 1415 1416 0
-1413 -1414 0
-1413 -1415 0
-1413 -1416 0
-1414 -1415 0
-1414 -1416 0
-1415 -1416 0
1417 1418 1419 1420 0
-1417 -1418 0
-1417 -1419 0
-1417 -1420 0
-1418 -1419 0
-1418 -1420 0
-1419 -1420 0
1421 1422 1423 1424 0
-1421 -1422 0
-1421 -1423 0
-1421 -1424 0
-1422 -1423 0
-1422 -1424 0
-1423 -1424 0
1425 1426 1427 1428 0
-1425 -1426 0
-1425 -1427 0
-1425 -1428 0
-1426 -1427 0
-1426 -1428 0
-1427 -1428 0
1429 1430 1431 1432 0
-1429 -1430 0
-1429 -1431 0
-1429 -1432 0
-1430 -1431 0
-1430 -1432 0
-1431 -1432 0
1433 1434 1435 1436 0
-1433 -1434 0
-1433 -1435 0
-1433 -1436 0
-1434 -1435 0
-1434 -1436 0
-1435 -1436 0
1437 1438 1439 1440 0
-1437 -1438 0
-1437 -1439 0
-1437 -1440 0
-1438 -1439 0
-1438 -1440 0
-1439 -1440 0
1441 1442 1443 1444 0
-1441 -1442 0
-1441 -1443 0
-1441 -1444 0
-1442 -1443 0
-1442 -1444 0
-1443 -1444 0
1445 1446 1447 1448 0
-1445 -1446 0
-1445 -1447 0
-1445 -1448 0
-1446 -1447 0
-1446 -1448 0
-1447 -1448 0
1449 1450 1451 1452 0
-1449 -1450 0
-1449 -1451 0
-1449 -1452 0
-1450 -1451 0
-1450 -1452 0
-1451 -1452 0
1453 1454 1455 1456 0
-1453 -1454 0
-1453 -1455 0
-1453 -1456 0
-1454 -1455 0
-1454 -1456 0
-1455 -1456 0
1457 1458 1459 1460 0
-1457 -1458 0
-1457 -1459 0
-1457 -1460 0
-1458 -1459 0
-1458 -1460 0
-1459 -1460 0
1461 1462 1463 1464 0
-1461 -1462 0
-1461 -1463 0
-1461 -1464 0
-1462 -1463 0
-1462 -1464 0
-1463 -1464 0
1465 1466 1467 1468 0
-1465 -1466 0
-1465 -1467 0
-1465 -1468 0
-1466 -1467 0
-1466 -1468 0
-1467 -1468 0
1469 1470 1471 1472 0
-1469 -1470 0
-1469 -1471 0
-1469 -1472 0
-1470 -1471 0
-1470 -1472 0
-1471 -1472 0
1473 1474 1475 1476 0
-1473 -1474 0
-1473 -1475 0
-1473 -1476 0
-1474 -1475 0
-1474 -1476 0
-1475 -1476 0
1477 1478 1479 1480 0
-1477 -1478 0
-1477 -1479 0
-1477 -1480 0
-1478 -1479 0
-1478 -1480 0
-1479 -1480 0
1481 1482 1483 1484 0
-1481 -1482 0
-1481 -1483 0
-1481 -1484 0
-1482 -1483 0
-1482 -1484 0
-1483 -1484 0
1485 1486 1487 1488 0
-1485 -1486 0
-1485 -1487 0
-1485 -1488 0
-1486 -1487 0
-1486 -1488 0
-1487 -1488 0
1489 1490 1491 1492 0
-1489 -1490 0
-1489 -1491 0
-1489 -1492 0
-1490 -1491 0
-1490 -1492 0
-1491 -1492 0
1493 1494 1495 1496 0
-1493 -1494 0
-1493 -1495 0
-1493 -1496 0
-1494 -1495 0
-1494 -1496 0
-1495 -1496 0
1497 1498 1499 1500 0
-1497 -1498 0
-1497 -1499 0
-1497 -1500 0
-1498 -1499 0
-1498 -1500 0
-1499 -1500 0
1501 1502 1503 1504 0
-1501 -1502 0
-1501 -1503 0
-1501 -1504 0
-1502 -1503 0
-1502 -1504 0
-1503 -1504 0
1505 1506 1507 1508 0
-1505 -1506 0
-1505 -1507 0
-1505 -1508 0
-1506 -1507 0
-1506 -1508 0
-1507 -1508 0
1509 1510 1511 1512 0
-1509 -1510 0
-1509 -1511 0
-1509 -1512 0
-1510 -1511 0
-1510 -1512 0
-1511 -1512 0
1513 1514 1515 1516 0
-1513 -1514 0
-1513 -1515 0
-1513 -1516 0
-1514 -1515 0
-1514 -1516 0
-1515 -1516 0
1517 1518 1519 1520 0
-1517 -1518 0
-1517 -1519 0
-1517 -1520 0
-1518 -1519 0
-1518 -1520 0
-1519 -1520 0
1521 1522 1523 1524 0
-1521 -1522 0
-1521 -1523 0
-1521 -1524 0
-1522 -1523 0
-1522 -1524 0
-1523 -1524 0
1525 1526 1527 1528 0
-1525 -1526 0
-1525 -1527 0
-1525 -1528 0
-1526 -1527 0
-1526 -1528 0
-1527 -1528 0
1529 1530 1531 1532 0
-1529 -1530 0
-1529 -1531 0
-1529 -1532 0
-1530 -1531 0
-1530 -1532 0
-1531 -1532 0
1533 1534 1535 1536 0
-1533 -1534 0
-1533 -1535 0
-1533 -1536 0
-1534 -1535 0
-1534 -1536 0
-1535 -1536 0
1537 1538 1539 1540 0
-1537 -1538 0
-1537 -1539 0
-1537 -1540 0
-1538 -1539 0
-1538 -1540 0
-1539 -1540 0
1541 1542 1543 1544 0
-1541 -1542 0
-1541 -1543 0
-1541 -1544 0
-1542 -1543 0
-1542 -1544 0
-1543 -1544 0
1545 1546 1547 1548 0
-1545 -1546 0
-1545 -1547 0
-1545 -1548 0
-1546 -1547 0
-1546 -1548 0
-1547 -1548 0
1549 1550 1551 1552 0
-1549 -1550 0
-1549 -1551 0
-1549 -1552 0
-1550 -1551 0
-1550 -1552 0
-1551 -1552 0
1553 1554 1555 1556 0
-1553 -1554 0
-1553 -1555 0
-1553 -1556 0
-1554 -1555 0
-1554 -1556 0
-1555 -1556 0
1557 1558 1559 1560 0
-1557 -1558 0
-1557 -1559 0
-1557 -1560 0
-1558 -1559 0
-1558 -1560 0
-1559 -1560 0
1561 1562 1563 1564 0
-1561 -1562 0
-1561 -1563 0
-1561 -1564 0
-1562 -1563 0
-1562 -1564 0
-1563 -1564 0
1565 1566 1567 1568 0
-1565 -1566 0
-1565 -1567 0
-1565 -1568 0
-1566 -1567 0
-1566 -1568 0
-1567 -1568 0
1569 1570 1571 1572 0
-1569 -1570 0
-1569 -1571 0
-1569 -1572 0
-1570 -1571 0
-1570 -1572 0
-1571 -1572 0
1573 1574 1575 1576 0
-1573 -1574 0
-1573 -1575 0
-1573 -1576 0
-1574 -1575 0
-1574 -1576 0
-1575 -1576 0
1577 1578 1579 1580 0
-1577 -1578 0
-1577 -1579 0
-1577 -1580 0
-1578 -1579 0
-1578 -1580 0
-1579 -1580 0
1581 1582 1583 1584 0
-1581 -1582 0
-1581 -1583 0
-1581 -1584 0
-1582 -1583 0
-1582 -1584 0
-1583 -1584 0
1585 1586 1587 1588 0
-1585 -1586 0
-1585 -1587 0
-1585 -1588 0
-1586 -1587 0
-1586 -1588 0
-1587 -1588 0
1589 1590 1591 1592 0
-1589 -1590 0
-1589 -1591 0
-1589 -1592 0
-1590 -1591 0
-1590 -1592 0
-1591 -1592 0
1593 1594 1595 1596 0
-1593 -1594 0
-1593 -1595 0
-1593 -1596 0
-1594 -1595 0
-1594 -1596 0
-1595 -1596 0
1597 1598 1599 1600 0
-1597 -1598 0
-1597 -1599 0
-1597 -1600 0
-1598 -1599 0
-1598 -1600 0
-1599 -1600 0
1601 1602 1603 1604 0
-1601 -1602 0
-1601 -1603 0
-1601 -1604 0
-1602 -1603 0
-1602 -1604 0
-1603 -1604 0
1605 1606 1607 1608 0
-1605 -1606 0
-1605 -1607 0
-1605 -1608 0
-1606 -1607 0
-1606 -1608 0
-1607 -1608 0
1609 1610 1611 1612 0
-1609 -1610 0
-1609 -1611 0
-1609 -1612 0
-1610 -1611 0
-1610 -1612 0
-1611 -1612 0
1613 1614 1615 1616 0
-1613 -1614 0
-1613 -1615 0
-1613 -1616 0
-1614 -1615 0
-1614 -1616 0
-1615 -1616 0
1617 1618 1619 1620 0
-1617 -1618 0
-1617 -1619 0
-1617 -1620 0
-1618 -1619 0
-1618 -1620 0
-1619 -1620 0
1621 1622 1623 1624 0
-1621 -1622 0
-1621 -1623 0
-1621 -1624 0
-1622 -1623 0
-1622 -1624 0
-1623 -1624 0
1625 1626 1627 1628 0
-1625 -1626 0
-1625 -1627 0
-1625 -1628 0
-1626 -1627 0
-1626 -1628 0
-1627 -1628 0
1629 1630 1631 1632 0
-1629 -1630 0
-1629 -1631 0
-1629 -1632 0
-1630 -1631 0
-1630 -1632 0
-1631 -1632 0
1633 1634 1635 1636 0
-1633 -1634 0
-1633 -1635 0
-1633 -1636 0
-1634 -1635 0
-1634 -1636 0
-1635 -1636 0
1637 1638 1639 1640 0
-1637 -1638 0
-1637 -1639 0
-1637 -1640 0
-1638 -1639 0
-1638 -1640 0
-1639 -1640 0
1641 1642 1643 1644 0
-1641 -1642 0
-1641 -1643 0
-1641 -1644 0
-1642 -1643 0
-1642 -1644 0
-1643 -1644 0
1645 1646 1647 1648 0
-1645 -1646 0
-1645 -1647 0
-1645 -1648 0
-1646 -1647 0
-1646 -1648 0
-1647 -1648 0
1649 1650 1651 1652 0
-1649 -1650 0
-1649 -1651 0
-1649 -1652 0
-1650 -1651 0
-1650 -1652 0
-1651 -1652 0
1653 1654 1655 1656 0
-1653 -1654 0
-1653 -1655 0
-1653 -1656 0
-1654 -1655 0
-1654 -1656 0
-1655 -1656 0
1657 1658 1659 1660 0
-1657 -1658 0
-1657 -1659 0
-1657 -1660 0
-1658 -1659 0
-1658 -1660 0
-1659 -1660 0
1661 1662 1663 1664 0
-1661 -1662 0
-1661 -1663 0
-1661 -1664 0
-1662 -1663 0
-1662 -1664 0
-1663 -1664 0
1665 1666 1667 1668 0
-1665 -1666 0
-1665 -1667 0
-1665 -1668 0
-1666 -1667 0
-1666 -1668 0
-1667 -1668 0
1669 1670 1671 1672 0
-1669 -1670 0
-1669 -1671 0
-1669 -1672 0
-1670 -1671 0
-1670 -1672 0
-1671 -1672 0
1673 1674 1675 1676 0
-1673 -1674 0
-1673 -1675 0
-1673 -1676 0
-1674 -1675 0
-1674 -1676 0
-1675 -1676 0
1677 1678 1679 1680 0
-1677 -1678 0
-1677 -1679 0
-1677 -1680 0
-1678 -1679 0
-1678 -1680 0
-1679 -1680 0
1681 1682 1683 1684 0
-1681 -1682 0
-1681 -1683 0
-1681 -1684 0
-1682 -1683 0
-1682 -1684 0
-1683 -1684 0
1685 1686 1687 1688 0
-1685 -1686 0
-1685 -1687 0
-1685 -1688 0
-1686 -1687 0
-1686 -1688 0
-1687 -1688 0
1689 1690 1691 1692 0
-1689 -1690 0
-1689 -1691 0
-1689 -1692 0
-1690 -1691 0
-1690 -1692 0
-1691 -1692 0
1693 1694 1695 1696 0
-1693 -1694 0
-1693 -1695 0
-1693 -1696 0
-1694 -1695 0
-1694 -1696 0
-1695 -1696 0
1697 1698 1699 1700 0
-1697 -1698 0
-1697 -1699 0
-1697 -1700 0
-1698 -1699 0
-1698 -1700 0
-1699 -1700 0
1701 1702 1703 1704 0
-1701 -1702 0
-1701 -1703 0
-1701 -1704 0
-1702 -1703 0
-1702 -1704 0
-1703 -1704 0
1705 1706 1707 1708 0
-1705 -1706 0
-1705 -1707 0
-1705 -1708 0
-1706 -1707 0
-1706 -1708 0
-1707 -1708 0
1709 1710 1711 1712 0
-1709 -1710 0
-1709 -1711 0
-1709 -1712 0
-1710 -1711 0
-1710 -1712 0
-1711 -1712 0
1713 1714 1715 1716 0
-1713 -1714 0
-1713 -1715 0
-1713 -1716 0
-1714 -1715 0
-1714 -1716 0
-1715 -1716 0
1717 1718 1719 1720 0
-1717 -1718 0
-1717 -1719 0
-1717 -1720 0
-1718 -1719 0
-1718 -1720 0
-1719 -1720 0
1721 1722 1723 1724 0
-1721 -1722 0
-1721 -1723 0
-1721 -1724 0
-1722 -1723 0
-1722 -1724 0
-1723 -1724 0
1725 1726 1727 1728 0
-1725 -1726 0
-1725 -1727 0
-1725 -1728 0
-1726 -1727 0
-1726 -1728 0
-1727 -1728 0
1729 1730 1731 1732 0
-1729 -1730 0
-1729 -1731 0
-1729 -1732 0
-1730 -1731 0
-1730 -1732 0
-1731 -1732 0
1733 1734 1735 1736 0
-1733 -1734 0
-1733 -1735 0
-1733 -1736 0
-1734 -1735 0
-1734 -1736 0
-1735 -1736 0
1737 1738 1739 1740 0
-1737 -1738 0
-1737 -1739 0
-1737 -1740 0
-1738 -1739 0
-1738 -1740 0
-1739 -1740 0
1741 1742 1743 1744 0
-1741 -1742 0
-1741 -1743 0
-1741 -1744 0
-1742 -1743 0
-1742 -1744 0
-1743 -1744 0
1745 1746 1747 1748 0
-1745 -1746 0
-1745 -1747 0
-1745 -1748 0
-1746 -1747 0
-1746 -1748 0
-1747 -1748 0
1749 1750 1751 1752 0
-1749 -1750 0
-1749 -1751 0
-1749 -1752 0
-1750 -1751 0
-1750 -1752 0
-1751 -1752 0
1753 1754 1755 1756 0
-1753 -1754 0
-1753 -1755 0
-1753 -1756 0
-1754 -1755 0
-1754 -1756 0
-1755 -1756 0
1757 1758 1759 1760 0
-1757 -1758 0
-1757 -1759 0
-1757 -1760 0
-1758 -1759 0
-1758 -1760 0
-1759 -1760 0
1761 1762 1763 1764 0
-1761 -1762 0
-1761 -1763 0
-1761 -1764 0
-1762 -1763 0
-1762 -1764 0
-1763 -1764 0
1765 1766 1767 1768 0
-1765 -1766 0
-1765 -1767 0
-1765 -1768 0
-1766 -1767 0
-1766 -1768 0
-1767 -1768 0
1769 1770 1771 1772 0
-1769 -1770 0
-1769 -1771 0
-1769 -1772 0
-1770 -1771 0
-1770 -1772 0
-1771 -1772 0
1773 1774 1775 1776 0
-1773 -1774 0
-1773 -1775 0
-1773 -1776 0
-1774 -1775 0
-1774 -1776 0
-1775 -1776 0
1777 1778 1779 1780 0
-1777 -1778 0
-1777 -1779 0
-1777 -1780 0
-1778 -1779 0
-1778 -1780 0
-1779 -1780 0
1781 1782 1783 1784 0
-1781 -1782 0
-1781 -1783 0
-1781 -1784 0
-1782 -1783 0
-1782 -1784 0
-1783 -1784 0
1785 1786 1787 1788 0
-1785 -1786 0
-1785 -1787 0
-1785 -1788 0
-1786 -1787 0
-1786 -1788 0
-1787 -1788 0
1789 1790 1791 1792 0
-1789 -1790 0
-1789 -1791 0
-1789 -1792 0
-1790 -1791 0
-1790 -1792 0
-1791 -1792 0
1793 1794 1795 1796 0
-1793 -1794 0
-1793 -1795 0
-1793 -1796 0
-1794 -1795 0
-1794 -1796 0
-1795 -1796 0
1797 1798 1799 1800 0
-1797 -1798 0
-1797 -1799 0
-1797 -1800 0
-1798 -1799 0
-1798 -1800 0
-1799 -1800 0
1801 1802 1803 1804 0
-1801 -1802 0
-1801 -1803 0
-1801 -1804 0
-1802 -1803 0
-1802 -1804 0
-1803 -1804 0
1805 1806 1807 1808 0
-1805 -1806 0
-1805 -1807 0
-1805 -1808 0
-1806 -1807 0
-1806 -1808 0
-1807 -1808 0
1809 1810 1811 1812 0
-1809 -1810 0
-1809 -1811 0
-1809 -1812 0
-1810 -1811 0
-1810 -1812 0
-1811 -1812 0
1813 1814 1815 1816 0
-1813 -1814 0
-1813 -1815 0
-1813 -1816 0
-1814 -1815 0
-1814 -1816 0
-1815 -1816 0
1817 1818 1819 1820 0
-1817 -1818 0
-1817 -1819 0
-1817 -1820 0
-1818 -1819 0
-1818 -1820 0
-1819 -1820 0
1821 1822 1823 1824 0
-1821 -1822 0
-1821 -1823 0
-1821 -1824 0
-1822 -1823 0
-1822 -1824 0
-1823 -1824 0
1825 1826 1827 1828 0
-1825 -1826 0
-1825 -1827 0
-1825 -1828 0
-1826 -1827 0
-1826 -1828 0
-1827 -1828 0
1829 1830 1831 1832 0
-1829 -1830 0
-1829 -1831 0
-1829 -1832 0
-1830 -1831 0
-1830 -1832 0
-1831 -1832 0
1833 1834 1835 1836 0
-1833 -1834 0
-1833 -1835 0
-1833 -1836 0
-1834 -1835 0
-1834 -1836 0
-1835 -1836 0
1837 1838 1839 1840 0
-1837 -1838 0
-1837 -1839 0
-1837 -1840 0
-1838 -1839 0
-1838 -1840 0
-1839 -1840 0
1841 1842 1843 1844 0
-1841 -1842 0
-1841 -1843 0
-1841 -1844 0
-1842 -1843 0
-1842 -1844 0
-1843 -1844 0
1845 1846 1847 1848 0
-1845 -1846 0
-1845 -1847 0
-1845 -1848 0
-1846 -1847 0
-1846 -1848 0
-1847 -1848 0
1849 1850 1851 1852 0
-1849 -1850 0
-1849 -1851 0
-1849 -1852 0
-1850 -1851 0
-1850 -1852 0
-1851 -1852 0
1853 1854 1855 1856 0
-1853 -1854 0
-1853 -1855 0
-1853 -1856 0
-1854 -1855 0
-1854 -1856 0
-1855 -1856 0
1857 1858 1859 1860 0
-1857 -1858 0
-1857 -1859 0
-1857 -1860 0
-1858 -1859 0
-1858 -1860 0
-1859 -1860 0
1861 1862 1863 1864 0
-1861 -1862 0
-1861 -1863 0
-1861 -1864 0
-1862 -1863 0
-1862 -1864 0
-1863 -1864 0
1865 1866 1867 1868 0
-1865 -1866 0
-1865 -1867 0
-1865 -1868 0
-1866 -1867 0
-1866 -1868 0
-1867 -1868 0
1869 1870 1871 1872 0
-1869 -1870 0
-1869 -1871 0
-1869 -1872 0
-1870 -1871 0
-1870 -1872 0
-1871 -1872 0
1873 1874 1875 1876 0
-1873 -1874 0
-1873 -1875 0
-1873 -1876 0
-1874 -1875 0
-1874 -1876 0
-1875 -1876 0
1877 1878 1879 1880 0
-1877 -1878 0
-1877 -1879 0
-1877 -1880 0
-1878 -1879 0
-1878 -1880 0
-1879 -1880 0
1881 1882 1883 1884 0
-1881 -1882 0
-1881 -1883 0
-1881 -1884 0
-1882 -1883 0
-1882 -1884 0
-1883 -1884 0
1885 1886 1887 1888 0
-1885 -1886 0
-1885 -1887 0
-1885 -1888 0
-1886 -1887 0
-1886 -1888 0
-1887 -1888 0
1889 1890 1891 1892 0
-1889 -1890 0
-1889 -1891 0
-1889 -1892 0
-1890 -1891 0
-1890 -1892 0
-1891 -1892 0
1893 1894 1895 1896 0
-1893 -1894 0
-1893 -1895 0
-1893 -1896 0
-1894 -1895 0
-1894 -1896 0
-1895 -1896 0
1897 1898 1899 1900 0
-1897 -1898 0
-1897 -1899 0
-1897 -1900 0
-1898 -1899 0
-1898 -1900 0
-1899 -1900 0
1901 1902 1903 1904 0
-1901 -1902 0
-1901 -1903 0
-1901 -1904 0
-1902 -1903 0
-1902 -1904 0
-1903 -1904 0
1905 1906 1907 1908 0
-1905 -1906 0
-1905 -1907 0
-1905 -1908 0
-1906 -1907 0
-1906 -1908 0
-1907 -1908 0
1909 1910 1911 1912 0
-1909 -1910 0
-1909 -1911 0
-1909 -1912 0
-1910 -1911 0
-1910 -1912 0
-1911 -1912 0
1913 1914 1915 1916 0
-1913 -1914 0
-1913 -1915 0
-1913 -1916 0
-1914 -1915 0
-1914 -1916 0
-1915 -1916 0
1917 1918 1919 1920 0
-1917 -1918 0
-1917 -1919 0
-1917 -1920 0
-1918 -1919 0
-1918 -1920 0
-1919 -1920 0
1921 1922 1923 1924 0
-1921 -1922 0
-1921 -1923 0
-1921 -1924 0
-1922 -1923 0
-1922 -1924 0
-1923 -1924 0
1925 1926 1927 1928 0
-1925 -1926 0
-1925 -1927 0
-1925 -1928 0
-1926 -1927 0
-1926 -1928 0
-1927 -1928 0
1929 1930 1931 1932 0
-1929 -1930 0
-1929 -1931 0
-1929 -1932 0
-1930 -1931 0
-1930 -1932 0
-1931 -1932 0
1933 1934 1935 1936 0
-1933 -1934 0
-1933 -1935 0
-1933 -1936 0
-1934 -1935 0
-1934 -1936 0
-1935 -1936 0
1937 1938 1939 1940 0
-1937 -1938 0
-1937 -1939 0
-1937 -1940 0
-1938 -1939 0
-1938 -1940 0
-1939 -1940 0
1941 1942 1943 1944 0
-1941 -1942 0
-1941 -1943 0
-1941 -1944 0
-1942 -1943 0
-1942 -1944 0
-1943 -1944 0
1945 1946 1947 1948 0
-1945 -1946 0
-1945 -1947 0
-1945 -1948 0
-1946 -1947 0
-1946 -1948 0
-1947 -1948 0
1949 1950 1951 1952 0
-1949 -1950 0
-1949 -1951 0
-1949 -1952 0
-1950 -1951 0
-1950 -1952 0
-1951 -1952 0
1953 1954 1955 1956 0
-1953 -1954 0
-1953 -1955 0
-1953 -1956 0
-1954 -1955 0
-1954 -1956 0
-1955 -1956 0
1957 1958 1959 1960 0
-1957 -1958 0
-1957 -1959 0
-1957 -1960 0
-1958 -1959 0
-1958 -1960 0
-1959 -1960 0
1961 1962 1963 1964 0
-1961 -1962 0
-1961 -1963 0
-1961 -1964 0
-1962 -1963 0
-1962 -1964 0
-1963 -1964 0
1965 1966 1967 1968 0
-1965 -1966 0
-1965 -1967 0
-1965 -1968 0
-1966 -1967 0
-1966 -1968 0
-1967 -1968 0
1969 1970 1971 1972 0
-1969 -1970 0
-1969 -1971 0
-1969 -1972 0
-1970 -1971 0
-1970 -1972 0
-1971 -1972 0
1973 1974 1975 1976 0
-1973 -1974 0
-1973 -1975 0
-1973 -1976 0
-1974 -1975 0
-1974 -1976 0
-1975 -1976 0
1977 1978 1979 1980 0
-1977 -1978 0
-1977 -1979 0
-1977 -1980 0
-1978 -1979 0
-1978 -1980 0
-1979 -1980 0
1981 1982 1983 1984 0
-1981 -1982 0
-1981 -1983 0
-1981 -1984 0
-1982 -1983 0
-1982 -1984 0
-1983 -1984 0
1985 1986 1987 1988 0
-1985 -1986 0
-1985 -1987 0
-1985 -1988 0
-1986 -1987 0
-1986 -1988 0
-1987 -1988 0
1989 1990 1991 1992 0
-1989 -1990 0
-1989 -1991 0
-1989 -1992 0
-1990 -1991 0
-1990 -1992 0
-1991 -1992 0
1993 1994 1995 1996 0
-1993 -1994 0
-1993 -1995 0
-1993 -1996 0
-1994 -1995 0
-1994 -1996 0
-1995 -1996 0
1997 1998 1999 2000 0
-1997 -1998 0
-1997 -1999 0
-1997 -2000 0
-1998 -1999 0
-1998 -2000 0
-1999 -2000 0
2001 2002 2003 2004 0
-2001 -2002 0
-2001 -2003 0
-2001 -2004 0
-2002 -2003 0
-2002 -2004 0
-2003 -2004 0
2005 2006 2007 2008 0
-2005 -2006 0
-2005 -2007 0
-2005 -2008 0
-2006 -2007 0
-2006 -2008 0
-2007 -2008 0
2009 2010 2011 2012 0
-2009 -2010 0
-2009 -2011 0
-2009 -2012 0
-2010 -2011 0
-2010 -2012 0
-2011 -2012 0
2013 2014 2015 2016 0
-2013 -2014 0
-2013 -2015 0
-2013 -2016 0
-2014 -2015 0
-2014 -2016 0
-2015 -2016 0
2017 2018 2019 2020 0
-2017 -2018 0
-2017 -2019 0
-2017 -2020 0
-2018 -2019 0
-2018 -2020 0
-2019 -2020 0
2021 2022 2023 2024 0
-2021 -2022 0
-2021 -2023 0
-2021 -2024 0
-2022 -2023 0
-2022 -2024 0
-2023 -2024 0
2025 2026 2027 2028 0
-2025 -2026 0
-2025 -2027 0
-2025 -2028 0
-2026 -2027 0
-2026 -2028 0
-2027 -2028 0
2029 2030 2031 2032 0
-2029 -2030 0
-2029 -2031 0
-2029 -2032 0
-2030 -2031 0
-2030 -2032 0
-2031 -2032 0
2033 2034 2035 2036 0
-2033 -2034 0
-2033 -2035 0
-2033 -2036 0
-2034 -2035 0
-2034 -2036 0
-2035 -2036 0
2037 2038 2039 2040 0
-2037 -2038 0
-2037 -2039 0
-2037 -2040 0
-2038 -2039 0
-2038 -2040 0
-2039 -2040 0
2041 2042 2043 2044 0
-2041 -2042 0
-2041 -2043 0
-2041 -2044 0
-2042 -2043 0
-2042 -2044 0
-2043 -2044 0
2045 2046 2047 2048 0
-2045 -2046 0
-2045 -2047 0
-2045 -2048 0
-2046 -2047 0
-2046 -2048 0
-2047 -2048 0
2049 2050 2051 2052 0
-2049 -2050 0
-2049 -2051 0
-2049 -2052 0
-2050 -2051 0
-2050 -2052 0
-2051 -2052 0
2053 2054 2055 2056 0
-2053 -2054 0
-2053 -2055 0
-2053 -2056 0
-2054 -2055 0
-2054 -2056 0
-2055 -2056 0
2057 2058 2059 2060 0
-2057 -2058 0
-2057 -2059 0
-2057 -2060 0
-2058 -2059 0
-2058 -2060 0
-2059 -2060 0
2061 2062 2063 2064 0
-2061 -2062 0
-2061 -2063 0
-2061 -2064 0
-2062 -2063 0
-2062 -2064 0
-2063 -2064 0
2065 2066 2067 2068 0
-2065 -2066 0
-2065 -2067 0
-2065 -2068 0
-2066 -2067 0
-2066 -2068 0
-2067 -2068 0
2069 2070 2071 2072 0
-2069 -2070 0
-2069 -2071 0
-2069 -2072 0
-2070 -2071 0
-2070 -2072 0
-2071 -2072 0
2073 2074 2075 2076 0
-2073 -2074 0
-2073 -2075 0
-2073 -2076 0
-2074 -2075 0
-2074 -2076 0
-2075 -2076 0
2077 2078 2079 2080 0
-2077 -2078 0
-2077 -2079 0
-2077 -2080 0
-2078 -2079 0
-2078 -2080 0
-2079 -2080 0
2081 2082 2083 2084 0
-2081 -2082 0
-2081 -2083 0
-2081 -2084 0
-2082 -2083 0
-2082 -2084 0
-2083 -2084 0
2085 2086 2087 2088 0
-2085 -2086 0
-2085 -2087 0
-2085 -2088 0
-2086 -2087 0
-2086 -2088 0
-2087 -2088 0
2089 2090 2091 2092 0
-2089 -2090 0
-2089 -2091 0
-2089 -2092 0
-2090 -2091 0
-2090 -2092 0
-2091 -2092 0
2093 2094 2095 2096 0
-2093 -2094 0
-2093 -2095 0
-2093 -2096 0
-2094 -2095 0
-2094 -2096 0
-2095 -2096 0
2097 2098 2099 2100 0
-2097 -2098 0
-2097 -2099 0
-2097 -2100 0
-2098 -2099 0
-2098 -2100 0
-2099 -2100 0
2101 2102 2103 2104 0
-2101 -2102 0
-2101 -2103 0
-2101 -2104 0
-2102 -2103 0
-2102 -2104 0
-2103 -2104 0
2105 2106 2107 2108 0
-2105 -2106 0
-2105 -2107 0
-2105 -2108 0
-2106 -2107 0
-2106 -2108 0
-2107 -2108 0
2109 2110 2111 2112 0
-2109 -2110 0
-2109 -2111 0
-2109 -2112 0
-2110 -2111 0
-2110 -2112 0
-2111 -2112 0
2113 2114 2115 2116 0
-2113 -2114 0
-2113 -2115 0
-2113 -2116 0
-2114 -2115 0
-2114 -2116 0
-2115 -2116 0
2117 2118 2119 2120 0
-2117 -2118 0
-2117 -2119 0
-2117 -2120 0
-2118 -2119 0
-2118 -2120 0
-2119 -2120 0
2121 2122 2123 2124 0
-2121 -2122 0
-2121 -2123 0
-2121 -2124 0
-2122 -2123 0
-2122 -2124 0
-2123 -2124 0
2125 2126 2127 2128 0
-2125 -2126 0
-2125 -2127 0
-2125 -2128 0
-2126 -2127 0
-2126 -2128 0
-2127 -2128 0
2129 2130 2131 2132 0
-2129 -2130 0
-2129 -2131 0
-2129 -2132 0
-2130 -2131 0
-2130 -2132 0
-2131 -2132 0
2133 2134 2135 2136 0
-2133 -2134 0
-2133 -2135 0
-2133 -2136 0
-2134 -2135 0
-2134 -2136 0
-2135 -2136 0
2137 2138 2139 2140 0
-2137 -2138 0
-2137 -2139 0
-2137 -2140 0
-2138 -2139 0
-2138 -2140 0
-2139 -2140 0
2141 2142 2143 2144 0
-2141 -2142 0
-2141 -2143 0
-2141 -2144 0
-2142 -2143 0
-2142 -2144 0
-2143 -2144 0
2145 2146 2147 2148 0
-2145 -2146 0
-2145 -2147 0
-2145 -2148 0
-2146 -2147 0
-2146 -2148 0
-2147 -2148 0
2149 2150 2151 2152 0
-2149 -2150 0
-2149 -2151 0
-2149 -2152 0
-2150 -2151 0
-2150 -2152 0
-2151 -2152 0
2153 2154 2155 2156 0
-2153 -2154 0
-2153 -2155 0
-2153 -2156 0
-2154 -2155 0
-2154 -2156 0
-2155 -2156 0
2157 2158 2159 2160 0
-2157 -2158 0
-2157 -2159 0
-2157 -2160 0
-2158 -2159 0
-2158 -2160 0
-2159 -2160 0
2161 2162 2163 2164 0
-2161 -2162 0
-2161 -2163 0
-2161 -2164 0
-2162 -2163 0
-2162 -2164 0
-2163 -2164 0
2165 2166 2167 2168 0
-2165 -2166 0
-2165 -2167 0
-2165 -2168 0
-2166 -2167 0
-2166 -2168 0
-2167 -2168 0
2169 2170 2171 2172 0
-2169 -2170 0
-2169 -2171 0
-2169 -2172 0
-2170 -2171 0
-2170 -2172 0
-2171 -2172 0
2173 2174 2175 2176 0
-2173 -2174 0
-2173 -2175 0
-2173 -2176 0
-2174 -2175 0
-2174 -2176 0
-2175 -2176 0
2177 2178 2179 2180 0
-2177 -2178 0
-2177 -2179 0
-2177 -2180 0
-2178 -2179 0
-2178 -2180 0
-2179 -2180 0
2181 2182 2183 2184 0
-2181 -2182 0
-2181 -2183 0
-2181 -2184 0
-2182 -2183 0
-2182 -2184 0
-2183 -2184 0
2185 2186 2187 2188 0
-2185 -2186 0
-2185 -2187 0
-2185 -2188 0
-2186 -2187 0
-2186 -2188 0
-2187 -2188 0
2189 2190 2191 2192 0
-2189 -2190 0
-2189 -2191 0
-2189 -2192 0
-2190 -2191 0
-2190 -2192 0
-2191 -2192 0
2193 2194 2195 2196 0
-2193 -2194 0
-2193 -2195 0
-2193 -2196 0
-2194 -2195 0
-2194 -2196 0
-2195 -2196 0
2197 2198 2199 2200 0
-2197 -2198 0
-2197 -2199 0
-2197 -2200 0
-2198 -2199 0
-2198 -2200 0
-2199 -2200 0
2201 2202 2203 2204 0
-2201 -2202 0
-2201 -2203 0
-2201 -2204 0
-2202 -2203 0
-2202 -2204 0
-2203 -2204 0
2205 2206 2207 2208 0
-2205 -2206 0
-2205 -2207 0
-2205 -2208 0
-2206 -2207 0
-2206 -2208 0
-2207 -2208 0
2209 2210 2211 2212 0
-2209 -2210 0
-2209 -2211 0
-2209 -2212 0
-2210 -2211 0
-2210 -2212 0
-2211 -2212 0
2213 2214 2215 2216 0
-2213 -2214 0
-2213 -2215 0
-2213 -2216 0
-2214 -2215 0
-2214 -2216 0
-2215 -2216 0
2217 2218 2219 2220 0
-2217 -2218 0
-2217 -2219 0
-2217 -2220 0
-2218 -2219 0
-2218 -2220 0
-2219 -2220 0
2221 2222 2223 2224 0
-2221 -2222 0
-2221 -2223 0
-2221 -2224 0
-2222 -2223 0
-2222 -2224 0
-2223 -2224 0
2225 2226 2227 2228 0
-2225 -2226 0
-2225 -2227 0
-2225 -2228 0
-2226 -2227 0
-2226 -2228 0
-2227 -2228 0
2229 2230 2231 2232 0
-2229 -2230 0
-2229 -2231 0
-2229 -2232 0
-2230 -2231 0
-2230 -2232 0
-2231 -2232 0
2233 2234 2235 2236 0
-2233 -2234 0
-2233 -2235 0
-2233 -2236 0
-2234 -2235 0
-2234 -2236 0
-2235 -2236 0
2237 2238 2239 2240 0
-2237 -2238 0
-2237 -2239 0
-2237 -2240 0
-2238 -2239 0
-2238 -2240 0
-2239 -2240 0
2241 2242 2243 2244 0
-2241 -2242 0
-2241 -2243 0
-2241 -2244 0
-2242 -2243 0
-2242 -2244 0
-2243 -2244 0
2245 2246 2247 2248 0
-2245 -2246 0
-2245 -2247 0
-2245 -2248 0
-2246 -2247 0
-2246 -2248 0
-2247 -2248 0
2249 2250 2251 2252 0
-2249 -2250 0
-2249 -2251 0
-2249 -2252 0
-2250 -2251 0
-2250 -2252 0
-2251 -2252 0
2253 2254 2255 2256 0
-2253 -2254 0
-2253 -2255 0
-2253 -2256 0
-2254 -2255 0
-2254 -2256 0
-2255 -2256 0
2257 2258 2259 2260 0
-2257 -2258 0
-2257 -2259 0
-2257 -2260 0
-2258 -2259 0
-2258 -2260 0
-2259 -2260 0
2261 2262 2263 2264 0
-2261 -2262 0
-2261 -2263 0
-2261 -2264 0
-2262 -2263 0
-2262 -2264 0
-2263 -2264 0
2265 2266 2267 2268 0
-2265 -2266 0
-2265 -2267 0
-2265 -2268 0
-2266 -2267 0
-2266 -2268 0
-2267 -2268 0
2269 2270 2271 2272 0
-2269 -2270 0
-2269 -2271 0
-2269 -2272 0
-2270 -2271 0
-2270 -2272 0
-2271 -2272 0
2273 2274 2275 2276 0
-2273 -2274 0
-2273 -2275 0
-2273 -2276 0
-2274 -2275 0
-2274 -2276 0
-2275 -2276 0
2277 2278 2279 2280 0
-2277 -2278 0
-2277 -2279 0
-2277 -2280 0
-2278 -2279 0
-2278 -2280 0
-2279 -2280 0
2281 2282 2283 2284 0
-2281 -2282 0
-2281 -2283 0
-2281 -2284 0
-2282 -2283 0
-2282 -2284 0
-2283 -2284 0
2285 2286 2287 2288 0
-2285 -2286 0
-2285 -2287 0
-2285 -2288 0
-2286 -2287 0
-2286 -2288 0
-2287 -2288 0
2289 2290 2291 2292 0
-2289 -2290 0
-2289 -2291 0
-2289 -2292 0
-2290 -2291 0
-2290 -2292 0
-2291 -2292 0
2293 2294 2295 2296 0
-2293 -2294 0
-2293 -2295 0
-2293 -2296 0
-2294 -2295 0
-2294 -2296 0
-2295 -2296 0
2297 2298 2299 2300 0
-2297 -2298 0
-2297 -2299 0
-2297 -2300 0
-2298 -2299 0
-2298 -2300 0
-2299 -2300 0
2301 2302 2303 2304 0
-2301 -2302 0
-2301 -2303 0
-2301 -2304 0
-2302 -2303 0
-2302 -2304 0
-2303 -2304 0
2305 2306 2307 2308 0
-2305 -2306 0
-2305 -2307 0
-2305 -2308 0
-2306 -2307 0
-2306 -2308 0
-2307 -2308 0
2309 2310 2311 2312 0
-2309 -2310 0
-2309 -2311 0
-2309 -2312 0
-2310 -2311 0
-2310 -2312 0
-2311 -2312 0
2313 2314 2315 2316 0
-2313 -2314 0
-2313 -2315 0
-2313 -2316 0
-2314 -2315 0
-2314 -2316 0
-2315 -2316 0
2317 2318 2319 2320 0
-2317 -2318 0
-2317 -2319 0
-2317 -2320 0
-2318 -2319 0
-2318 -2320 0
-2319 -2320 0
2321 2322 2323 2324 0
-2321 -2322 0
-2321 -2323 0
-2321 -2324 0
-2322 -2323 0
-2322 -2324 0
-2323 -2324 0
2325 2326 2327 2328 0
-2325 -2326 0
-2325 -2327 0
-2325 -2328 0
-2326 -2327 0
-2326 -2328 0
-2327 -2328 0
2329 2330 2331 2332 0
-2329 -2330 0
-2329 -2331 0
-2329 -2332 0
-2330 -2331 0
-2330 -2332 0
-2331 -2332 0
2333 2334 2335 2336 0
-2333 -2334 0
-2333 -2335 0
-2333 -2336 0
-2334 -2335 0
-2334 -2336 0
-2335 -2336 0
2337 2338 2339 2340 0
-2337 -2338 0
-2337 -2339 0
-2337 -2340 0
-2338 -2339 0
-2338 -2340 0
-2339 -2340 0
2341 2342 2343 2344 0
-2341 -2342 0
-2341 -2343 0
-2341 -2344 0
-2342 -2343 0
-2342 -2344 0
-2343 -2344 0
2345 2346 2347 2348 0
-2345 -2346 0
-2345 -2347 0
-2345 -2348 0
-2346 -2347 0
-2346 -2348 0
-2347 -2348 0
2349 2350 2351 2352 0
-2349 -2350 0
-2349 -2351 0
-2349 -2352 0
-2350 -2351 0
-2350 -2352 0
-2351 -2352 0
2353 2354 2355 2356 0
-2353 -2354 0
-2353 -2355 0
-2353 -2356 0
-2354 -2355 0
-2354 -2356 0
-2355 -2356 0
2357 2358 2359 2360 0
-2357 -2358 0
-2357 -2359 0
-2357 -2360 0
-2358 -2359 0
-2358 -2360 0
-2359 -2360 0
2361 2362 2363 2364 0
-2361 -2362 0
-2361 -2363 0
-2361 -2364 0
-2362 -2363 0
-2362 -2364 0
-2363 -2364 0
2365 2366 2367 2368 0
-2365 -2366 0
-2365 -2367 0
-2365 -2368 0
-2366 -2367 0
-2366 -2368 0
-2367 -2368 0
2369 2370 2371 2372 0
-2369 -2370 0
-2369 -2371 0
-2369 -2372 0
-2370 -2371 0
-2370 -2372 0
-2371 -2372 0
2373 2374 2375 2376 0
-2373 -2374 0
-2373 -2375 0
-2373 -2376 0
-2374 -2375 0
-2374 -2376 0
-2375 -2376 0
2377 2378 2379 2380 0
-2377 -2378 0
-2377 -2379 0
-2377 -2380 0
-2378 -2379 0
-2378 -2380 0
-2379 -2380 0
2381 2382 2383 2384 0
-2381 -2382 0
-2381 -2383 0
-2381 -2384 0
-2382 -2383 0
-2382 -2384 0
-2383 -2384 0
2385 2386 2387 2388 0
-2385 -2386 0
-2385 -2387 0
-2385 -2388 0
-2386 -2387 0
-2386 -2388 0
-2387 -2388 0
2389 2390 2391 2392 0
-2389 -2390 0
-2389 -2391 0
-2389 -2392 0
-2390 -2391 0
-2390 -2392 0
-2391 -2392 0
2393 2394 2395 2396 0
-2393 -2394 0
-2393 -2395 0
-2393 -2396 0
-2394 -2395 0
-2394 -2396 0
-2395 -2396 0
2397 2398 2399 2400 0
-2397 -2398 0
-2397 -2399 0
-2397 -2400 0
-2398 -2399 0
-2398 -2400 0
-2399 -2400 0
2401 2402 2403 2404 0
-2401 -2402 0
-2401 -2403 0
-2401 -2404 0
-2402 -2403 0
-2402 -2404 0
-2403 -2404 0
2405 2406 2407 2408 0
-2405 -2406 0
-2405 -2407 0
-2405 -2408 0
-2406 -2407 0
-2406 -2408 0
-2407 -2408 0
2409 2410 2411 2412 0
-2409 -2410 0
-2409 -2411 0
-2409 -2412 0
-2410 -2411 0
-2410 -2412 0
-2411 -2412 0
2413 2414 2415 2416 0
-2413 -2414 0
-2413 -2415 0
-2413 -2416 0
-2414 -2415 0
-2414 -2416 0
-2415 -2416 0
2417 2418 2419 2420 0
-2417 -2418 0
-2417 -2419 0
-2417 -2420 0
-2418 -2419 0
-2418 -2420 0
-2419 -2420 0
2421 2422 2423 2424 0
-2421 -2422 0
-2421 -2423 0
-2421 -2424 0
-2422 -2423 0
-2422 -2424 0
-2423 -2424 0
2425 2426 2427 2428 0
-2425 -2426 0
-2425 -2427 0
-2425 -2428 0
-2426 -2427 0
-2426 -2428 0
-2427 -2428 0
2429 2430 2431 2432 0
-2429 -2430 0
-2429 -2431 0
-2429 -2432 0
-2430 -2431 0
-2430 -2432 0
-2431 -2432 0
2433 2434 2435 2436 0
-2433 -2434 0
-2433 -2435 0
-2433 -2436 0
-2434 -2435 0
-2434 -2436 0
-2435 -2436 0
2437 2438 2439 2440 0
-2437 -2438 0
-2437 -2439 0
-2437 -2440 0
-2438 -2439 0
-2438 -2440 0
-2439 -2440 0
2441 2442 2443 2444 0
-2441 -2442 0
-2441 -2443 0
-2441 -2444 0
-2442 -2443 0
-2442 -2444 0
-2443 -2444 0
2445 2446 2447 2448 0
-2445 -2446 0
-2445 -2447 0
-2445 -2448 0
-2446 -2447 0
-2446 -2448 0
-2447 -2448 0
2449 2450 2451 2452 0
-2449 -2450 0
-2449 -2451 0
-2449 -2452 0
-2450 -2451 0
-2450 -2452 0
-2451 -2452 0
2453 2454 2455 2456 0
-2453 -2454 0
-2453 -2455 0
-2453 -2456 0
-2454 -2455 0
-2454 -2456 0
-2455 -2456 0
2457 2458 2459 2460 0
-2457 -2458 0
-2457 -2459 0
-2457 -2460 0
-2458 -2459 0
-2458 -2460 0
-2459 -2460 0
2461 2462 2463 2464 0
-2461 -2462 0
-2461 -2463 0
-2461 -2464 0
-2462 -2463 0
-2462 -2464 0
-2463 -2464 0
2465 2466 2467 2468 0
-2465 -2466 0
-2465 -2467 0
-2465 -2468 0
-2466 -2467 0
-2466 -2468 0
-2467 -2468 0
2469 2470 2471 2472 0
-2469 -2470 0
-2469 -2471 0
-2469 -2472 0
-2470 -2471 0
-2470 -2472 0
-2471 -2472 0
2473 2474 2475 2476 0
-2473 -2474 0
-2473 -2475 0
-2473 -2476 0
-2474 -2475 0
-2474 -2476 0
-2475 -2476 0
2477 2478 2479 2480 0
-2477 -2478 0
-2477 -2479 0
-2477 -2480 0
-2478 -2479 0
-2478 -2480 0
-2479 -2480 0
2481 2482 2483 2484 0
-2481 -2482 0
-2481 -2483 0
-2481 -2484 0
-2482 -2483 0
-2482 -2484 0
-2483 -2484 0
2485 2486 2487 2488 0
-2485 -2486 0
-2485 -2487 0
-2485 -2488 0
-2486 -2487 0
-2486 -2488 0
-2487 -2488 0
2489 2490 2491 2492 0
-2489 -2490 0
-2489 -2491 0
-2489 -2492 0
-2490 -2491 0
-2490 -2492 0
-2491 -2492 0
2493 2494 2495 2496 0
-2493 -2494 0
-2493 -2495 0
-2493 -2496 0
-2494 -2495 0
-2494 -2496 0
-2495 -2496 0
2497 2498 2499 2500 0
-2497 -2498 0
-2497 -2499 0
-2497 -2500 0
-2498 -2499 0
-2498 -2500 0
-2499 -2500 0
2501 2502 2503 2504 0
-2501 -2502 0
-2501 -2503 0
-2501 -2504 0
-2502 -2503 0
-2502 -2504 0
-2503 -2504 0
2505 2506 2507 2508 0
-2505 -2506 0
-2505 -2507 0
-2505 -2508 0
-2506 -2507 0
-2506 -2508 0
-2507 -2508 0
2509 2510 2511 2512 0
-2509 -2510 0
-2509 -2511 0
-2509 -2512 0
-2510 -2511 0
-2510 -2512 0
-2511 -2512 0
2513 2514 2515 2516 0
-2513 -2514 0
-2513 -2515 0
-2513 -2516 0
-2514 -2515 0
-2514 -2516 0
-2515 -2516 0
2517 2518 2519 2520 0
-2517 -2518 0
-2517 -2519 0
-2517 -2520 0
-2518 -2519 0
-2518 -2520 0
-2519 -2520 0
2521 2522 2523 2524 0
-2521 -2522 0
-2521 -2523 0
-2521 -2524 0
-2522 -2523 0
-2522 -2524 0
-2523 -2524 0
2525 2526 2527 2528 0
-2525 -2526 0
-2525 -2527 0
-2525 -2528 0
-2526 -2527 0
-2526 -2528 0
-2527 -2528 0
2529 2530 2531 2532 0
-2529 -2530 0
-2529 -2531 0
-2529 -2532 0
-2530 -2531 0
-2530 -2532 0
-2531 -2532 0
2533 2534 2535 2536 0
-2533 -2534 0
-2533 -2535 0
-2533 -2536 0
-2534 -2535 0
-2534 -2536 0
-2535 -2536 0
2537 2538 2539 2540 0
-2537 -2538 0
-2537 -2539 0
-2537 -2540 0
-2538 -2539 0
-2538 -2540 0
-2539 -2540 0
2541 2542 2543 2544 0
-2541 -2542 0
-2541 -2543 0
-2541 -2544 0
-2542 -2543 0
-2542 -2544 0
-2543 -2544 0
2545 2546 2547 2548 0
-2545 -2546 0
-2545 -2547 0
-2545 -2548 0
-2546 -2547 0
-2546 -2548 0
-2547 -2548 0
2549 2550 2551 2552 0
-2549 -2550 0
-2549 -2551 0
-2549 -2552 0
-2550 -2551 0
-2550 -2552 0
-2551 -2552 0
2553 2554 2555 2556 0
-2553 -2554 0
-2553 -2555 0
-2553 -2556 0
-2554 -2555 0
-2554 -2556 0
-2555 -2556 0
2557 2558 2559 2560 0
-2557 -2558 0
-2557 -2559 0
-2557 -2560 0
-2558 -2559 0
-2558 -2560 0
-2559 -2560 0
2561 2562 2563 2564 0
-2561 -2562 0
-2561 -2563 0
-2561 -2564 0
-2562 -2563 0
-2562 -2564 0
-2563 -2564 0
2565 2566 2567 2568 0
-2565 -2566 0
-2565 -2567 0
-2565 -2568 0
-2566 -2567 0
-2566 -2568 0
-2567 -2568 0
2569 2570 2571 2572 0
-2569 -2570 0
-2569 -2571 0
-2569 -2572 0
-2570 -2571 0
-2570 -2572 0
-2571 -2572 0
2573 2574 2575 2576 0
-2573 -2574 0
-2573 -2575 0
-2573 -2576 0
-2574 -2575 0
-2574 -2576 0
-2575 -2576 0
2577 2578 2579 2580 0
-2577 -2578 0
-2577 -2579 0
-2577 -2580 0
-2578 -2579 0
-2578 -2580 0
-2579 -2580 0
2581 2582 2583 2584 0
-2581 -2582 0
-2581 -2583 0
-2581 -2584 0
-2582 -2583 0
-2582 -2584 0
-2583 -2584 0
2585 2586 2587 2588 0
-2585 -2586 0
-2585 -2587 0
-2585 -2588 0
-2586 -2587 0
-2586 -2588 0
-2587 -2588 0
2589 2590 2591 2592 0
-2589 -2590 0
-2589 -2591 0
-2589 -2592 0
-2590 -2591 0
-2590 -2592 0
-2591 -2592 0
2593 2594 2595 2596 0
-2593 -2594 0
-2593 -2595 0
-2593 -2596 0
-2594 -2595 0
-2594 -2596 0
-2595 -2596 0
2597 2598 2599 2600 0
-2597 -2598 0
-2597 -2599 0
-2597 -2600 0
-2598 -2599 0
-2598 -2600 0
-2599 -2600 0
2601 2602 2603 2604 0
-2601 -2602 0
-2601 -2603 0
-2601 -2604 0
-2602 -2603 0
-2602 -2604 0
-2603 -2604 0
2605 2606 2607 2608 0
-2605 -2606 0
-2605 -2607 0
-2605 -2608 0
-2606 -2607 0
-2606 -2608 0
-2607 -2608 0
2609 2610 2611 2612 0
-2609 -2610 0
-2609 -2611 0
-2609 -2612 0
-2610 -2611 0
-2610 -2612 0
-2611 -2612 0
2613 2614 2615 2616 0
-2613 -2614 0
-2613 -2615 0
-2613 -2616 0
-2614 -2615 0
-2614 -2616 0
-2615 -2616 0
2617 2618 2619 2620 0
-2617 -2618 0
-2617 -2619 0
-2617 -2620 0
-2618 -2619 0
-2618 -2620 0
-2619 -2620 0
2621 2622 2623 2624 0
-2621 -2622 0
-2621 -2623 0
-2621 -2624 0
-2622 -2623 0
-2622 -2624 0
-2623 -2624 0
2625 2626 2627 2628 0
-2625 -2626 0
-2625 -2627 0
-2625 -2628 0
-2626 -2627 0
-2626 -2628 0
-2627 -2628 0
2629 2630 2631 2632 0
-2629 -2630 0
-2629 -2631 0
-2629 -2632 0
-2630 -2631 0
-2630 -2632 0
-2631 -2632 0
2633 2634 2635 2636 0
-2633 -2634 0
-2633 -2635 0
-2633 -2636 0
-2634 -2635 0
-2634 -2636 0
-2635 -2636 0
2637 2638 2639 2640 0
-2637 -2638 0
-2637 -2639 0
-2637 -2640 0
-2638 -2639 0
-2638 -2640 0
-2639 -2640 0
2641 2642 2643 2644 0
-2641 -2642 0
-2641 -2643 0
-2641 -2644 0
-2642 -2643 0
-2642 -2644 0
-2643 -2644 0
2645 2646 2647 2648 0
-2645 -2646 0
-2645 -2647 0
-2645 -2648 0
-2646 -2647 0
-2646 -2648 0
-2647 -2648 0
2649 2650 2651 2652 0
-2649 -2650 0
-2649 -2651 0
-2649 -2652 0
-2650 -2651 0
-2650 -2652 0
-2651 -2652 0
2653 2654 2655 2656 0
-2653 -2654 0
-2653 -2655 0
-2653 -2656 0
-2654 -2655 0
-2654 -2656 0
-2655 -2656 0
2657 2658 2659 2660 0
-2657 -2658 0
-2657 -2659 0
-2657 -2660 0
-2658 -2659 0
-2658 -2660 0
-2659 -2660 0
2661 2662 2663 2664 0
-2661 -2662 0
-2661 -2663 0
-2661 -2664 0
-2662 -2663 0
-2662 -2664 0
-2663 -2664 0
2665 2666 2667 2668 0
-2665 -2666 0
-2665 -2667 0
-2665 -2668 0
-2666 -2667 0
-2666 -2668 0
-2667 -2668 0
2669 2670 2671 2672 0
-2669 -2670 0
-2669 -2671 0
-2669 -2672 0
-2670 -2671 0
-2670 -2672 0
-2671 -2672 0
2673 2674 2675 2676 0
-2673 -2674 0
-2673 -2675 0
-2673 -2676 0
-2674 -2675 0
-2674 -2676 0
-2675 -2676 0
2677 2678 2679 2680 0
-2677 -2678 0
-2677 -2679 0
-2677 -2680 0
-2678 -2679 0
-2678 -2680 0
-2679 -2680 0
2681 2682 2683 2684 0
-2681 -2682 0
-2681 -2683 0
-2681 -2684 0
-2682 -2683 0
-2682 -2684 0
-2683 -2684 0
2685 2686 2687 2688 0
-2685 -2686 0
-2685 -2687 0
-2685 -2688 0
-2686 -2687 0
-2686 -2688 0
-2687 -2688 0
2689 2690 2691 2692 0
-2689 -2690 0
-2689 -2691 0
-2689 -2692 0
-2690 -2691 0
-2690 -2692 0
-2691 -2692 0
2693 2694 2695 2696 0
-2693 -2694 0
-2693 -2695 0
-2693 -2696 0
-2694 -2695 0
-2694 -2696 0
-2695 -2696 0
2697 2698 2699 2700 0
-2697 -2698 0
-2697 -2699 0
-2697 -2700 0
-2698 -2699 0
-2698 -2700 0
-2699 -2700 0
2701 2702 2703 2704 0
-2701 -2702 0
-2701 -2703 0
-2701 -2704 0
-2702 -2703 0
-2702 -2704 0
-2703 -2704 0
2705 2706 2707 2708 0
-2705 -2706 0
-2705 -2707 0
-2705 -2708 0
-2706 -2707 0
-2706 -2708 0
-2707 -2708 0
2709 2710 2711 2712 0
-2709 -2710 0
-2709 -2711 0
-2709 -2712 0
-2710 -2711 0
-2710 -2712 0
-2711 -2712 0
2713 2714 2715 2716 0
-2713 -2714 0
-2713 -2715 0
-2713 -2716 0
-2714 -2715 0
-2714 -2716 0
-2715 -2716 0
2717 2718 2719 2720 0
-2717 -2718 0
-2717 -2719 0
-2717 -2720 0
-2718 -2719 0
-2718 -2720 0
-2719 -2720 0
2721 2722 2723 2724 0
-2721 -2722 0
-2721 -2723 0
-2721 -2724 0
-2722 -2723 0
-2722 -2724 0
-2723 -2724 0
2725 2726 2727 2728 0
-2725 -2726 0
-2725 -2727 0
-2725 -2728 0
-2726 -2727 0
-2726 -2728 0
-2727 -2728 0
2729 2730 2731 2732 0
-2729 -2730 0
-2729 -2731 0
-2729 -2732 0
-2730 -2731 0
-2730 -2732 0
-2731 -2732 0
2733 2734 2735 2736 0
-2733 -2734 0
-2733 -2735 0
-2733 -2736 0
-2734 -2735 0
-2734 -2736 0
-2735 -2736 0
2737 2738 2739 2740 0
-2737 -2738 0
-2737 -2739 0
-2737 -2740 0
-2738 -2739 0
-2738 -2740 0
-2739 -2740 0
2741 2742 2743 2744 0
-2741 -2742 0
-2741 -2743 0
-2741 -2744 0
-2742 -2743 0
-2742 -2744 0
-2743 -2744 0
2745 2746 2747 2748 0
-2745 -2746 0
-2745 -2747 0
-2745 -2748 0
-2746 -2747 0
-2746 -2748 0
-2747 -2748 0
2749 2750 2751 2752 0
-2749 -2750 0
-2749 -2751 0
-2749 -2752 0
-2750 -2751 0
-2750 -2752 0
-2751 -2752 0
2753 2754 2755 2756 0
-2753 -2754 0
-2753 -2755 0
-2753 -2756 0
-2754 -2755 0
-2754 -2756 0
-2755 -2756 0
2757 2758 2759 2760 0
-2757 -2758 0
-2757 -2759 0
-2757 -2760 0
-2758 -2759 0
-2758 -2760 0
-2759 -2760 0
2761 2762 2763 2764 0
-2761 -2762 0
-2761 -2763 0
-2761 -2764 0
-2762 -2763 0
-2762 -2764 0
-2763 -2764 0
2765 2766 2767 2768 0
-2765 -2766 0
-2765 -2767 0
-2765 -2768 0
-2766 -2767 0
-2766 -2768 0
-2767 -2768 0
2769 2770 2771 2772 0
-2769 -2770 0
-2769 -2771 0
-2769 -2772 0
-2770 -2771 0
-2770 -2772 0
-2771 -2772 0
2773 2774 2775 2776 0
-2773 -2774 0
-2773 -2775 0
-2773 -2776 0
-2774 -2775 0
-2774 -2776 0
-2775 -2776 0
2777 2778 2779 2780 0
-2777 -2778 0
-2777 -2779 0
-2777 -2780 0
-2778 -2779 0
-2778 -2780 0
-2779 -2780 0
2781 2782 2783 2784 0
-2781 -2782 0
-2781 -2783 0
-2781 -2784 0
-2782 -2783 0
-2782 -2784 0
-2783 -2784 0
2785 2786 2787 2788 0
-2785 -2786 0
-2785 -2787 0
-2785 -2788 0
-2786 -2787 0
-2786 -2788 0
-2787 -2788 0
2789 2790 2791 2792 0
-2789 -2790 0
-2789 -2791 0
-2789 -2792 0
-2790 -2791 0
-2790 -2792 0
-2791 -2792 0
2793 2794 2795 2796 0
-2793 -2794 0
-2793 -2795 0
-2793 -2796 0
-2794 -2795 0
-2794 -2796 0
-2795 -2796 0
2797 2798 2799 2800 0
-2797 -2798 0
-2797 -2799 0
-2797 -2800 0
-2798 -2799 0
-2798 -2800 0
-2799 -2800 0
2801 2802 2803 2804 0
-2801 -2802 0
-2801 -2803 0
-2801 -2804 0
-2802 -2803 0
-2802 -2804 0
-2803 -2804 0
2805 2806 2807 2808 0
-2805 -2806 0
-2805 -2807 0
-2805 -2808 0
-2806 -2807 0
-2806 -2808 0
-2807 -2808 0
2809 2810 2811 2812 0
-2809 -2810 0
-2809 -2811 0
-2809 -2812 0
-2810 -2811 0
-2810 -2812 0
-2811 -2812 0
2813 2814 2815 2816 0
-2813 -2814 0
-2813 -2815 0
-2813 -2816 0
-2814 -2815 0
-2814 -2816 0
-2815 -2816 0
2817 2818 2819 2820 0
-2817 -2818 0
-2817 -2819 0
-2817 -2820 0
-2818 -2819 0
-2818 -2820 0
-2819 -2820 0
2821 2822 2823 2824 0
-2821 -2822 0
-2821 -2823 0
-2821 -2824 0
-2822 -2823 0
-2822 -2824 0
-2823 -2824 0
2825 2826 2827 2828 0
-2825 -2826 0
-2825 -2827 0
-2825 -2828 0
-2826 -2827 0
-2826 -2828 0
-2827 -2828 0
2829 2830 2831 2832 0
-2829 -2830 0
-2829 -2831 0
-2829 -2832 0
-2830 -2831 0
-2830 -2832 0
-2831 -2832 0
2833 2834 2835 2836 0
-2833 -2834 0
-2833 -2835 0
-2833 -2836 0
-2834 -2835 0
-2834 -2836 0
-2835 -2836 0
2837 2838 2839 2840 0
-2837 -2838 0
-2837 -2839 0
-2837 -2840 0
-2838 -2839 0
-2838 -2840 0
-2839 -2840 0
2841 2842 2843 2844 0
-2841 -2842 0
-2841 -2843 0
-2841 -2844 0
-2842 -2843 0
-2842 -2844 0
-2843 -2844 0
2845 2846 2847 2848 0
-2845 -2846 0
-2845 -2847 0
-2845 -2848 0
-2846 -2847 0
-2846 -2848 0
-2847 -2848 0
2849 2850 2851 2852 0
-2849 -2850 0
-2849 -2851 0
-2849 -2852 0
-2850 -2851 0
-2850 -2852 0
-2851 -2852 0
2853 2854 2855 2856 0
-2853 -2854 0
-2853 -2855 0
-2853 -2856 0
-2854 -2855 0
-2854 -2856 0
-2855 -2856 0
2857 2858 2859 2860 0
-2857 -2858 0
-2857 -2859 0
-2857 -2860 0
-2858 -2859 0
-2858 -2860 0
-2859 -2860 0
2861 2862 2863 2864 0
-2861 -2862 0
-2861 -2863 0
-2861 -2864 0
-2862 -2863 0
-2862 -2864 0
-2863 -2864 0
2865 2866 2867 2868 0
-2865 -2866 0
-2865 -2867 0
-2865 -2868 0
-2866 -2867 0
-2866 -2868 0
-2867 -2868 0
2869 2870 2871 2872 0
-2869 -2870 0
-2869 -2871 0
-2869 -2872 0
-2870 -2871 0
-2870 -2872 0
-2871 -2872 0
2873 2874 2875 2876 0
-2873 -2874 0
-2873 -2875 0
-2873 -2876 0
-2874 -2875 0
-2874 -2876 0
-2875 -2876 0
2877 2878 2879 2880 0
-2877 -2878 0
-2877 -2879 0
-2877 -2880 0
-2878 -2879 0
-2878 -2880 0
-2879 -2880 0
2881 2882 2883 2884 0
-2881 -2882 0
-2881 -2883 0
-2881 -2884 0
-2882 -2883 0
-2882 -2884 0
-2883 -2884 0
2885 2886 2887 2888 0
-2885 -2886 0
-2885 -2887 0
-2885 -2888 0
-2886 -2887 0
-2886 -2888 0
-2887 -2888 0
2889 2890 2891 2892 0
-2889 -2890 0
-2889 -2891 0
-2889 -2892 0
-2890 -2891 0
-2890 -2892 0
-2891 -2892 0
2893 2894 2895 2896 0
-2893 -2894 0
-2893 -2895 0
-2893 -2896 0
-2894 -2895 0
-2894 -2896 0
-2895 -2896 0
2897 2898 2899 2900 0
-2897 -2898 0
-2897 -2899 0
-2897 -2900 0
-2898 -2899 0
-2898 -2900 0
-2899 -2900 0
2901 2902 2903 2904 0
-2901 -2902 0
-2901 -2903 0
-2901 -2904 0
-2902 -2903 0
-2902 -2904 0
-2903 -2904 0
2905 2906 2907 2908 0
-2905 -2906 0
-2905 -2907 0
-2905 -2908 0
-2906 -2907 0
-2906 -2908 0
-2907 -2908 0
2909 2910 2911 2912 0
-2909 -2910 0
-2909 -2911 0
-2909 -2912 0
-2910 -2911 0
-2910 -2912 0
-2911 -2912 0
2913 2914 2915 2916 0
-2913 -2914 0
-2913 -2915 0
-2913 -2916 0
-2914 -2915 0
-2914 -2916 0
-2915 -2916 0
2917 2918 2919 2920 0
-2917 -2918 0
-2917 -2919 0
-2917 -2920 0
-2918 -2919 0
-2918 -2920 0
-2919 -2920 0
2921 2922 2923 2924 0
-2921 -2922 0
-2921 -2923 0
-2921 -2924 0
-2922 -2923 0
-2922 -2924 0
-2923 -2924 0
2925 2926 2927 2928 0
-2925 -2926 0
-2925 -2927 0
-2925 -2928 0
-2926 -2927 0
-2926 -2928 0
-2927 -2928 0
2929 2930 2931 2932 0
-2929 -2930 0
-2929 -2931 0
-2929 -2932 0
-2930 -2931 0
-2930 -2932 0
-2931 -2932 0
2933 2934 2935 2936 0
-2933 -2934 0
-2933 -2935 0
-2933 -2936 0
-2934 -2935 0
-2934 -2936 0
-2935 -2936 0
2937 2938 2939 2940 0
-2937 -2938 0
-2937 -2939 0
-2937 -2940 0
-2938 -2939 0
-2938 -2940 0
-2939 -2940 0
2941 2942 2943 2944 0
-2941 -2942 0
-2941 -2943 0
-2941 -2944 0
-2942 -2943 0
-2942 -2944 0
-2943 -2944 0
2945 2946 2947 2948 0
-2945 -2946 0
-2945 -2947 0
-2945 -2948 0
-2946 -2947 0
-2946 -2948 0
-2947 -2948 0
2949 2950 2951 2952 0
-2949 -2950 0
-2949 -2951 0
-2949 -2952 0
-2950 -2951 0
-2950 -2952 0
-2951 -2952 0
2953 2954 2955 2956 0
-2953 -2954 0
-2953 -2955 0
-2953 -2956 0
-2954 -2955 0
-2954 -2956 0
-2955 -2956 0
2957 2958 2959 2960 0
-2957 -2958 0
-2957 -2959 0
-2957 -2960 0
-2958 -2959 0
-2958 -2960 0
-2959 -2960 0
2961 2962 2963 2964 0
-2961 -2962 0
-2961 -2963 0
-2961 -2964 0
-2962 -2963 0
-2962 -2964 0
-2963 -2964 0
2965 2966 2967 2968 0
-2965 -2966 0
-2965 -2967 0
-2965 -2968 0
-2966 -2967 0
-2966 -2968 0
-2967 -2968 0
2969 2970 2971 2972 0
-2969 -2970 0
-2969 -2971 0
-2969 -2972 0
-2970 -2971 0
-2970 -2972 0
-2971 -2972 0
2973 2974 2975 2976 0
-2973 -2974 0
-2973 -2975 0
-2973 -2976 0
-2974 -2975 0
-2974 -2976 0
-2975 -2976 0
2977 2978 2979 2980 0
-2977 -2978 0
-2977 -2979 0
-2977 -2980 0
-2978 -2979 0
-2978 -2980 0
-2979 -2980 0
2981 2982 2983 2984 0
-2981 -2982 0
-2981 -2983 0
-2981 -2984 0
-2982 -2983 0
-2982 -2984 0
-2983 -2984 0
2985 2986 2987 2988 0
-2985 -2986 0
-2985 -2987 0
-2985 -2988 0
-2986 -2987 0
-2986 -2988 0
-2987 -2988 0
2989 2990 2991 2992 0
-2989 -2990 0
-2989 -2991 0
-2989 -2992 0
-2990 -2991 0
-2990 -2992 0
-2991 -2992 0
2993 2994 2995 2996 0
-2993 -2994 0
-2993 -2995 0
-2993 -2996 0
-2994 -2995 0
-2994 -2996 0
-2995 -2996 0
2997 2998 2999 3000 0
-2997 -2998 0
-2997 -2999 0
-2997 -3000 0
-2998 -2999 0
-2998 -3000 0
-2999 -3000 0
3001 3002 3003 3004 0
-3001 -3002 0
-3001 -3003 0
-3001 -3004 0
-3002 -3003 0
-3002 -3004 0
-3003 -3004 0
3005 3006 3007 3008 0
-3005 -3006 0
-3005 -3007 0
-3005 -3008 0
-3006 -3007 0
-3006 -3008 0
-3007 -3008 0
3009 3010 3011 3012 0
-3009 -3010 0
-3009 -3011 0
-3009 -3012 0
-3010 -3011 0
-3010 -3012 0
-3011 -3012 0
3013 3014 3015 3016 0
-3013 -3014 0
-3013 -3015 0
-3013 -3016 0
-3014 -3015 0
-3014 -3016 0
-3015 -3016 0
3017 3018 3019 3020 0
-3017 -3018 0
-3017 -3019 0
-3017 -3020 0
-3018 -3019 0
-3018 -3020 0
-3019 -3020 0
3021 3022 3023 3024 0
-3021 -3022 0
-3021 -3023 0
-3021 -3024 0
-3022 -3023 0
-3022 -3024 0
-3023 -3024 0
3025 3026 3027 3028 0
-3025 -3026 0
-3025 -3027 0
-3025 -3028 0
-3026 -3027 0
-3026 -3028 0
-3027 -3028 0
3029 3030 3031 3032 0
-3029 -3030 0
-3029 -3031 0
-3029 -3032 0
-3030 -3031 0
-3030 -3032 0
-3031 -3032 0
3033 3034 3035 3036 0
-3033 -3034 0
-3033 -3035 0
-3033 -3036 0
-3034 -3035 0
-3034 -3036 0
-3035 -3036 0
3037 3038 3039 3040 0
-3037 -3038 0
-3037 -3039 0
-3037 -3040 0
-3038 -3039 0
-3038 -3040 0
-3039 -3040 0
3041 3042 3043 3044 0
-3041 -3042 0
-3041 -3043 0
-3041 -3044 0
-3042 -3043 0
-3042 -3044 0
-3043 -3044 0
3045 3046 3047 3048 0
-3045 -3046 0
-3045 -3047 0
-3045 -3048 0
-3046 -3047 0
-3046 -3048 0
-3047 -3048 0
3049 3050 3051 3052 0
-3049 -3050 0
-3049 -3051 0
-3049 -3052 0
-3050 -3051 0
-3050 -3052 0
-3051 -3052 0
3053 3054 3055 3056 0
-3053 -3054 0
-3053 -3055 0
-3053 -3056 0
-3054 -3055 0
-3054 -3056 0
-3055 -3056 0
3057 3058 3059 3060 0
-3057 -3058 0
-3057 -3059 0
-3057 -3060 0
-3058 -3059 0
-3058 -3060 0
-3059 -3060 0
3061 3062 3063 3064 0
-3061 -3062 0
-3061 -3063 0
-3061 -3064 0
-3062 -3063 0
-3062 -3064 0
-3063 -3064 0
3065 3066 3067 3068 0
-3065 -3066 0
-3065 -3067 0
-3065 -3068 0
-3066 -3067 0
-3066 -3068 0
-3067 -3068 0
3069 3070 3071 3072 0
-3069 -3070 0
-3069 -3071 0
-3069 -3072 0
-3070 -3071 0
-3070 -3072 0
-3071 -3072 0
3073 3074 3075 3076 0
-3073 -3074 0
-3073 -3075 0
-3073 -3076 0
-3074 -3075 0
-3074 -3076 0
-3075 -3076 0
3077 3078 3079 3080 0
-3077 -3078 0
-3077 -3079 0
-3077 -3080 0
-3078 -3079 0
-3078 -3080 0
-3079 -3080 0
3081 3082 3083 3084 0
-3081 -3082 0
-3081 -3083 0
-3081 -3084 0
-3082 -3083 0
-3082 -3084 0
-3083 -3084 0
3085 3086 3087 3088 0
-3085 -3086 0
-3085 -3087 0
-3085 -3088 0
-3086 -3087 0
-3086 -3088 0
-3087 -3088 0
3089 3090 3091 3092 0
-3089 -3090 0
-3089 -3091 0
-3089 -3092 0
-3090 -3091 0
-3090 -3092 0
-3091 -3092 0
3093 3094 3095 3096 0
-3093 -3094 0
-3093 -3095 0
-3093 -3096 0
-3094 -3095 0
-3094 -3096 0
-3095 -3096 0
3097 3098 3099 3100 0
-3097 -3098 0
-3097 -3099 0
-3097 -3100 0
-3098 -3099 0
-3098 -3100 0
-3099 -3100 0
3101 3102 3103 3104 0
-3101 -3102 0
-3101 -3103 0
-3101 -3104 0
-3102 -3103 0
-3102 -3104 0
-3103 -3104 0
3105 3106 3107 3108 0
-3105 -3106 0
-3105 -3107 0
-3105 -3108 0
-3106 -3107 0
-3106 -3108 0
-3107 -3108 0
3109 3110 3111 3112 0
-3109 -3110 0
-3109 -3111 0
-3109 -3112 0
-3110 -3111 0
-3110 -3112 0
-3111 -3112 0
3113 3114 3115 3116 0
-3113 -3114 0
-3113 -3115 0
-3113 -3116 0
-3114 -3115 0
-3114 -3116 0
-3115 -3116 0
3117 3118 3119 3120 0
-3117 -3118 0
-3117 -3119 0
-3117 -3120 0
-3118 -3119 0
-3118 -3120 0
-3119 -3120 0
3121 3122 3123 3124 0
-3121 -3122 0
-3121 -3123 0
-3121 -3124 0
-3122 -3123 0
-3122 -3124 0
-3123 -3124 0
3125 3126 3127 3128 0
-3125 -3126 0
-3125 -3127 0
-3125 -3128 0
-3126 -3127 0
-3126 -3128 0
-3127 -3128 0
3129 3130 3131 3132 0
-3129 -3130 0
-3129 -3131 0
-3129 -3132 0
-3130 -3131 0
-3130 -3132 0
-3131 -3132 0
3133 3134 3135 3136 0
-3133 -3134 0
-3133 -3135 0
-3133 -3136 0
-3134 -3135 0
-3134 -3136 0
-3135 -3136 0
3137 3138 3139 3140 0
-3137 -3138 0
-3137 -3139 0
-3137 -3140 0
-3138 -3139 0
-3138 -3140 0
-3139 -3140 0
3141 3142 3143 3144 0
-3141 -3142 0
-3141 -3143 0
-3141 -3144 0
-3142 -3143 0
-3142 -3144 0
-3143 -3144 0
3145 3146 3147 3148 0
-3145 -3146 0
-3145 -3147 0
-3145 -3148 0
-3146 -3147 0
-3146 -3148 0
-3147 -3148 0
3149 3150 3151 3152 0
-3149 -3150 0
-3149 -3151 0
-3149 -3152 0
-3150 -3151 0
-3150 -3152 0
-3151 -3152 0
3153 3154 3155 3156 0
-3153 -3154 0
-3153 -3155 0
-3153 -3156 0
-3154 -3155 0
-3154 -3156 0
-3155 -3156 0
3157 3158 3159 3160 0
-3157 -3158 0
-3157 -3159 0
-3157 -3160 0
-3158 -3159 0
-3158 -3160 0
-3159 -3160 0
3161 3162 3163 3164 0
-3161 -3162 0
-3161 -3163 0
-3161 -3164 0
-3162 -3163 0
-3162 -3164 0
-3163 -3164 0
3165 3166 3167 3168 0
-3165 -3166 0
-3165 -3167 0
-3165 -3168 0
-3166 -3167 0
-3166 -3168 0
-3167 -3168 0
3169 3170 3171 3172 0
-3169 -3170 0
-3169 -3171 0
-3169 -3172 0
-3170 -3171 0
-3170 -3172 0
-3171 -3172 0
3173 3174 3175 3176 0
-3173 -3174 0
-3173 -3175 0
-3173 -3176 0
-3174 -3175 0
-3174 -3176 0
-3175 -3176 0
3177 3178 3179 3180 0
-3177 -3178 0
-3177 -3179 0
-3177 -3180 0
-3178 -3179 0
-3178 -3180 0
-3179 -3180 0
3181 3182 3183 3184 0
-3181 -3182 0
-3181 -3183 0
-3181 -3184 0
-3182 -3183 0
-3182 -3184 0
-3183 -3184 0
3185 3186 3187 3188 0
-3185 -3186 0
-3185 -3187 0
-3185 -3188 0
-3186 -3187 0
-3186 -3188 0
-3187 -3188 0
3189 3190 3191 3192 0
-3189 -3190 0
-3189 -3191 0
-3189 -3192 0
-3190 -3191 0
-3190 -3192 0
-3191 -3192 0
3193 3194 3195 3196 0
-3193 -3194 0
-3193 -3195 0
-3193 -3196 0
-3194 -3195 0
-3194 -3196 0
-3195 -3196 0
3197 3198 3199 3200 0
-3197 -3198 0
-3197 -3199 0
-3197 -3200 0
-3198 -3199 0
-3198 -3200 0
-3199 -3200 0
3201 3202 3203 3204 0
-3201 -3202 0
-3201 -3203 0
-3201 -3204 0
-3202 -3203 0
-3202 -3204 0
-3203 -3204 0
3205 3206 3207 3208 0
-3205 -3206 0
-3205 -3207 0
-3205 -3208 0
-3206 -3207 0
-3206 -3208 0
-3207 -3208 0
3209 3210 3211 3212 0
-3209 -3210 0
-3209 -3211 0
-3209 -3212 0
-3210 -3211 0
-3210 -3212 0
-3211 -3212 0
3213 3214 3215 3216 0
-3213 -3214 0
-3213 -3215 0
-3213 -3216 0
-3214 -3215 0
-3214 -3216 0
-3215 -3216 0
3217 3218 3219 3220 0
-3217 -3218 0
-3217 -3219 0
-3217 -3220 0
-3218 -3219 0
-3218 -3220 0
-3219 -3220 0
3221 3222 3223 3224 0
-3221 -3222 0
-3221 -3223 0
-3221 -3224 0
-3222 -3223 0
-3222 -3224 0
-3223 -3224 0
3225 3226 3227 3228 0
-3225 -3226 0
-3225 -3227 0
-3225 -3228 0
-3226 -3227 0
-3226 -3228 0
-3227 -3228 0
3229 3230 3231 3232 0
-3229 -3230 0
-3229 -3231 0
-3229 -3232 0
-3230 -3231 0
-3230 -3232 0
-3231 -3232 0
3233 3234 3235 3236 0
-3233 -3234 0
-3233 -3235 0
-3233 -3236 0
-3234 -3235 0
-3234 -3236 0
-3235 -3236 0
3237 3238 3239 3240 0
-3237 -3238 0
-3237 -3239 0
-3237 -3240 0
-3238 -3239 0
-3238 -3240 0
-3239 -3240 0
3241 3242 3243 3244 0
-3241 -3242 0
-3241 -3243 0
-3241 -3244 0
-3242 -3243 0
-3242 -3244 0
-3243 -3244 0
3245 3246 3247 3248 0
-3245 -3246 0
-3245 -3247 0
-3245 -3248 0
-3246 -3247 0
-3246 -3248 0
-3247 -3248 0
3249 3250 3251 3252 0
-3249 -3250 0
-3249 -3251 0
-3249 -3252 0
-3250 -3251 0
-3250 -3252 0
-3251 -3252 0
3253 3254 3255 3256 0
-3253 -3254 0
-3253 -3255 0
-3253 -3256 0
-3254 -3255 0
-3254 -3256 0
-3255 -3256 0
3257 3258 3259 3260 0
-3257 -3258 0
-3257 -3259 0
-3257 -3260 0
-3258 -3259 0
-3258 -3260 0
-3259 -3260 0
3261 3262 3263 3264 0
-3261 -3262 0
-3261 -3263 0
-3261 -3264 0
-3262 -3263 0
-3262 -3264 0
-3263 -3264 0
3265 3266 3267 3268 0
-3265 -3266 0
-3265 -3267 0
-3265 -3268 0
-3266 -3267 0
-3266 -3268 0
-3267 -3268 0
3269 3270 3271 3272 0
-3269 -3270 0
-3269 -3271 0
-3269 -3272 0
-3270 -3271 0
-3270 -3272 0
-3271 -3272 0
3273 3274 3275 3276 0
-3273 -3274 0
-3273 -3275 0
-3273 -3276 0
-3274 -3275 0
-3274 -3276 0
-3275 -3276 0
3277 3278 3279 3280 0
-3277 -3278 0
-3277 -3279 0
-3277 -3280 0
-3278 -3279 0
-3278 -3280 0
-3279 -3280 0
3281 3282 3283 3284 0
-3281 -3282 0
-3281 -3283 0
-3281 -3284 0
-3282 -3283 0
-3282 -3284 0
-3283 -3284 0
3285 3286 3287 3288 0
-3285 -3286 0
-3285 -3287 0
-3285 -3288 0
-3286 -3287 0
-3286 -3288 0
-3287 -3288 0
3289 3290 3291 3292 0
-3289 -3290 0
-3289 -3291 0
-3289 -3292 0
-3290 -3291 0
-3290 -3292 0
-3291 -3292 0
3293 3294 3295 3296 0
-3293 -3294 0
-3293 -3295 0
-3293 -3296 0
-3294 -3295 0
-3294 -3296 0
-3295 -3296 0
3297 3298 3299 3300 0
-3297 -3298 0
-3297 -3299 0
-3297 -3300 0
-3298 -3299 0
-3298 -3300 0
-3299 -3300 0
3301 3302 3303 3304 0
-3301 -3302 0
-3301 -3303 0
-3301 -3304 0
-3302 -3303 0
-3302 -3304 0
-3303 -3304 0
3305 3306 3307 3308 0
-3305 -3306 0
-3305 -3307 0
-3305 -3308 0
-3306 -3307 0
-3306 -3308 0
-3307 -3308 0
3309 3310 3311 3312 0
-3309 -3310 0
-3309 -3311 0
-3309 -3312 0
-3310 -3311 0
-3310 -3312 0
-3311 -3312 0
3313 3314 3315 3316 0
-3313 -3314 0
-3313 -3315 0
-3313 -3316 0
-3314 -3315 0
-3314 -3316 0
-3315 -3316 0
3317 3318 3319 3320 0
-3317 -3318 0
-3317 -3319 0
-3317 -3320 0
-3318 -3319 0
-3318 -3320 0
-3319 -3320 0
3321 3322 3323 3324 0
-3321 -3322 0
-3321 -3323 0
-3321 -3324 0
-3322 -3323 0
-3322 -3324 0
-3323 -3324 0
3325 3326 3327 3328 0
-3325 -3326 0
-3325 -3327 0
-3325 -3328 0
-3326 -3327 0
-3326 -3328 0
-3327 -3328 0
3329 3330 3331 3332 0
-3329 -3330 0
-3329 -3331 0
-3329 -3332 0
-3330 -3331 0
-3330 -3332 0
-3331 -3332 0
3333 3334 3335 3336 0
-3333 -3334 0
-3333 -3335 0
-3333 -3336 0
-3334 -3335 0
-3334 -3336 0
-3335 -3336 0
3337 3338 3339 3340 0
-3337 -3338 0
-3337 -3339 0
-3337 -3340 0
-3338 -3339 0
-3338 -3340 0
-3339 -3340 0
3341 3342 3343 3344 0
-3341 -3342 0
-3341 -3343 0
-3341 -3344 0
-3342 -3343 0
-3342 -3344 0
-3343 -3344 0
3345 3346 3347 3348 0
-3345 -3346 0
-3345 -3347 0
-3345 -3348 0
-3346 -3347 0
-3346 -3348 0
-3347 -3348 0
3349 3350 3351 3352 0
-3349 -3350 0
-3349 -3351 0
-3349 -3352 0
-3350 -3351 0
-3350 -3352 0
-3351 -3352 0
3353 3354 3355 3356 0
-3353 -3354 0
-3353 -3355 0
-3353 -3356 0
-3354 -3355 0
-3354 -3356 0
-3355 -3356 0
3357 3358 3359 3360 0
-3357 -3358 0
-3357 -3359 0
-3357 -3360 0
-3358 -3359 0
-3358 -3360 0
-3359 -3360 0
3361 3362 3363 3364 0
-3361 -3362 0
-3361 -3363 0
-3361 -3364 0
-3362 -3363 0
-3362 -3364 0
-3363 -3364 0
3365 3366 3367 3368 0
-3365 -3366 0
-3365 -3367 0
-3365 -3368 0
-3366 -3367 0
-3366 -3368 0
-3367 -3368 0
3369 3370 3371 3372 0
-3369 -3370 0
-3369 -3371 0
-3369 -3372 0
-3370 -3371 0
-3370 -3372 0
-3371 -3372 0
3373 3374 3375 3376 0
-3373 -3374 0
-3373 -3375 0
-3373 -3376 0
-3374 -3375 0
-3374 -3376 0
-3375 -3376 0
3377 3378 3379 3380 0
-3377 -3378 0
-3377 -3379 0
-3377 -3380 0
-3378 -3379 0
-3378 -3380 0
-3379 -3380 0
3381 3382 3383 3384 0
-3381 -3382 0
-3381 -3383 0
-3381 -3384 0
-3382 -3383 0
-3382 -3384 0
-3383 -3384 0
3385 3386 3387 3388 0
-3385 -3386 0
-3385 -3387 0
-3385 -3388 0
-3386 -3387 0
-3386 -3388 0
-3387 -3388 0
3389 3390 3391 3392 0
-3389 -3390 0
-3389 -3391 0
-3389 -3392 0
-3390 -3391 0
-3390 -3392 0
-3391 -3392 0
3393 3394 3395 3396 0
-3393 -3394 0
-3393 -3395 0
-3393 -3396 0
-3394 -3395 0
-3394 -3396 0
-3395 -3396 0
3397 3398 3399 3400 0
-3397 -3398 0
-3397 -3399 0
-3397 -3400 0
-3398 -3399 0
-3398 -3400 0
-3399 -3400 0
3401 3402 3403 3404 0
-3401 -3402 0
-3401 -3403 0
-3401 -3404 0
-3402 -3403 0
-3402 -3404 0
-3403 -3404 0
3405 3406 3407 3408 0
-3405 -3406 0
-3405 -3407 0
-3405 -3408 0
-3406 -3407 0
-3406 -3408 0
-3407 -3408 0
3409 3410 3411 3412 0
-3409 -3410 0
-3409 -3411 0
-3409 -3412 0
-3410 -3411 0
-3410 -3412 0
-3411 -3412 0
3413 3414 3415 3416 0
-3413 -3414 0
-3413 -3415 0
-3413 -3416 0
-3414 -3415 0
-3414 -3416 0
-3415 -3416 0
3417 3418 3419 3420 0
-3417 -3418 0
-3417 -3419 0
-3417 -3420 0
-3418 -3419 0
-3418 -3420 0
-3419 -3420 0
3421 3422 3423 3424 0
-3421 -3422 0
-3421 -3423 0
-3421 -3424 0
-3422 -3423 0
-3422 -3424 0
-3423 -3424 0
3425 3426 3427 3428 0
-3425 -3426 0
-3425 -3427 0
-3425 -3428 0
-3426 -3427 0
-3426 -3428 0
-3427 -3428 0
3429 3430 3431 3432 0
-3429 -3430 0
-3429 -3431 0
-3429 -3432 0
-3430 -3431 0
-3430 -3432 0
-3431 -3432 0
3433 3434 3435 3436 0
-3433 -3434 0
-3433 -3435 0
-3433 -3436 0
-3434 -3435 0
-3434 -3436 0
-3435 -3436 0
3437 3438 3439 3440 0
-3437 -3438 0
-3437 -3439 0
-3437 -3440 0
-3438 -3439 0
-3438 -3440 0
-3439 -3440 0
3441 3442 3443 3444 0
-3441 -3442 0
-3441 -3443 0
-3441 -3444 0
-3442 -3443 0
-3442 -3444 0
-3443 -3444 0
3445 3446 3447 3448 0
-3445 -3446 0
-3445 -3447 0
-3445 -3448 0
-3446 -3447 0
-3446 -3448 0
-3447 -3448 0
3449 3450 3451 3452 0
-3449 -3450 0
-3449 -3451 0
-3449 -3452 0
-3450 -3451 0
-3450 -3452 0
-3451 -3452 0
3453 3454 3455 3456 0
-3453 -3454 0
-3453 -3455 0
-3453 -3456 0
-3454 -3455 0
-3454 -3456 0
-3455 -3456 0
3457 3458 3459 3460 0
-3457 -3458 0
-3457 -3459 0
-3457 -3460 0
-3458 -3459 0
-3458 -3460 0
-3459 -3460 0
3461 3462 3463 3464 0
-3461 -3462 0
-3461 -3463 0
-3461 -3464 0
-3462 -3463 0
-3462 -3464 0
-3463 -3464 0
3465 3466 3467 3468 0
-3465 -3466 0
-3465 -3467 0
-3465 -3468 0
-3466 -3467 0
-3466 -3468 0
-3467 -3468 0
3469 3470 3471 3472 0
-3469 -3470 0
-3469 -3471 0
-3469 -3472 0
-3470 -3471 0
-3470 -3472 0
-3471 -3472 0
3473 3474 3475 3476 0
-3473 -3474 0
-3473 -3475 0
-3473 -3476 0
-3474 -3475 0
-3474 -3476 0
-3475 -3476 0
3477 3478 3479 3480 0
-3477 -3478 0
-3477 -3479 0
-3477 -3480 0
-3478 -3479 0
-3478 -3480 0
-3479 -3480 0
3481 3482 3483 3484 0
-3481 -3482 0
-3481 -3483 0
-3481 -3484 0
-3482 -3483 0
-3482 -3484 0
-3483 -3484 0
3485 3486 3487 3488 0
-3485 -3486 0
-3485 -3487 0
-3485 -3488 0
-3486 -3487 0
-3486 -3488 0
-3487 -3488 0
3489 3490 3491 3492 0
-3489 -3490 0
-3489 -3491 0
-3489 -3492 0
-3490 -3491 0
-3490 -3492 0
-3491 -3492 0
3493 3494 3495 3496 0
-3493 -3494 0
-3493 -3495 0
-3493 -3496 0
-3494 -3495 0
-3494 -3496 0
-3495 -3496 0
3497 3498 3499 3500 0
-3497 -3498 0
-3497 -3499 0
-3497 -3500 0
-3498 -3499 0
-3498 -3500 0
-3499 -3500 0
3501 3502 3503 3504 0
-3501 -3502 0
-3501 -3503 0
-3501 -3504 0
-3502 -3503 0
-3502 -3504 0
-3503 -3504 0
3505 3506 3507 3508 0
-3505 -3506 0
-3505 -3507 0
-3505 -3508 0
-3506 -3507 0
-3506 -3508 0
-3507 -3508 0
3509 3510 3511 3512 0
-3509 -3510 0
-3509 -3511 0
-3509 -3512 0
-3510 -3511 0
-3510 -3512 0
-3511 -3512 0
3513 3514 3515 3516 0
-3513 -3514 0
-3513 -3515 0
-3513 -3516 0
-3514 -3515 0
-3514 -3516 0
-3515 -3516 0
3517 3518 3519 3520 0
-3517 -3518 0
-3517 -3519 0
-3517 -3520 0
-3518 -3519 0
-3518 -3520 0
-3519 -3520 0
3521 3522 3523 3524 0
-3521 -3522 0
-3521 -3523 0
-3521 -3524 0
-3522 -3523 0
-3522 -3524 0
-3523 -3524 0
3525 3526 3527 3528 0
-3525 -3526 0
-3525 -3527 0
-3525 -3528 0
-3526 -3527 0
-3526 -3528 0
-3527 -3528 0
3529 3530 3531 3532 0
-3529 -3530 0
-3529 -3531 0
-3529 -3532 0
-3530 -3531 0
-3530 -3532 0
-3531 -3532 0
3533 3534 3535 3536 0
-3533 -3534 0
-3533 -3535 0
-3533 -3536 0
-3534 -3535 0
-3534 -3536 0
-3535 -3536 0
3537 3538 3539 3540 0
-3537 -3538 0
-3537 -3539 0
-3537 -3540 0
-3538 -3539 0
-3538 -3540 0
-3539 -3540 0
3541 3542 3543 3544 0
-3541 -3542 0
-3541 -3543 0
-3541 -3544 0
-3542 -3543 0
-3542 -3544 0
-3543 -3544 0
3545 3546 3547 3548 0
-3545 -3546 0
-3545 -3547 0
-3545 -3548 0
-3546 -3547 0
-3546 -3548 0
-3547 -3548 0
3549 3550 3551 3552 0
-3549 -3550 0
-3549 -3551 0
-3549 -3552 0
-3550 -3551 0
-3550 -3552 0
-3551 -3552 0
3553 3554 3555 3556 0
-3553 -3554 0
-3553 -3555 0
-3553 -3556 0
-3554 -3555 0
-3554 -3556 0
-3555 -3556 0
3557 3558 3559 3560 0
-3557 -3558 0
-3557 -3559 0
-3557 -3560 0
-3558 -3559 0
-3558 -3560 0
-3559 -3560 0
3561 3562 3563 3564 0
-3561 -3562 0
-3561 -3563 0
-3561 -3564 0
-3562 -3563 0
-3562 -3564 0
-3563 -3564 0
3565 3566 3567 3568 0
-3565 -3566 0
-3565 -3567 0
-3565 -3568 0
-3566 -3567 0
-3566 -3568 0
-3567 -3568 0
3569 3570 3571 3572 0
-3569 -3570 0
-3569 -3571 0
-3569 -3572 0
-3570 -3571 0
-3570 -3572 0
-3571 -3572 0
3573 3574 3575 3576 0
-3573 -3574 0
-3573 -3575 0
-3573 -3576 0
-3574 -3575 0
-3574 -3576 0
-3575 -3576 0
3577 3578 3579 3580 0
-3577 -3578 0
-3577 -3579 0
-3577 -3580 0
-3578 -3579 0
-3578 -3580 0
-3579 -3580 0
3581 3582 3583 3584 0
-3581 -3582 0
-3581 -3583 0
-3581 -3584 0
-3582 -3583 0
-3582 -3584 0
-3583 -3584 0
3585 3586 3587 3588 0
-3585 -3586 0
-3585 -3587 0
-3585 -3588 0
-3586 -3587 0
-3586 -3588 0
-3587 -3588 0
3589 3590 3591 3592 0
-3589 -3590 0
-3589 -3591 0
-3589 -3592 0
-3590 -3591 0
-3590 -3592 0
-3591 -3592 0
3593 3594 3595 3596 0
-3593 -3594 0
-3593 -3595 0
-3593 -3596 0
-3594 -3595 0
-3594 -3596 0
-3595 -3596 0
3597 3598 3599 3600 0
-3597 -3598 0
-3597 -3599 0
-3597 -3600 0
-3598 -3599 0
-3598 -3600 0
-3599 -3600 0
3601 3602 3603 3604 0
-3601 -3602 0
-3601 -3603 0
-3601 -3604 0
-3602 -3603 0
-3602 -3604 0
-3603 -3604 0
3605 3606 3607 3608 0
-3605 -3606 0
-3605 -3607 0
-3605 -3608 0
-3606 -3607 0
-3606 -3608 0
-3607 -3608 0
3609 3610 3611 3612 0
-3609 -3610 0
-3609 -3611 0
-3609 -3612 0
-3610 -3611 0
-3610 -3612 0
-3611 -3612 0
3613 3614 3615 3616 0
-3613 -3614 0
-3613 -3615 0
-3613 -3616 0
-3614 -3615 0
-3614 -3616 0
-3615 -3616 0
3617 3618 3619 3620 0
-3617 -3618 0
-3617 -3619 0
-3617 -3620 0
-3618 -3619 0
-3618 -3620 0
-3619 -3620 0
3621 3622 3623 3624 0
-3621 -3622 0
-3621 -3623 0
-3621 -3624 0
-3622 -3623 0
-3622 -3624 0
-3623 -3624 0
3625 3626 3627 3628 0
-3625 -3626 0
-3625 -3627 0
-3625 -3628 0
-3626 -3627 0
-3626 -3628 0
-3627 -3628 0
3629 3630 3631 3632 0
-3629 -3630 0
-3629 -3631 0
-3629 -3632 0
-3630 -3631 0
-3630 -3632 0
-3631 -3632 0
3633 3634 3635 3636 0
-3633 -3634 0
-3633 -3635 0
-3633 -3636 0
-3634 -3635 0
-3634 -3636 0
-3635 -3636 0
3637 3638 3639 3640 0
-3637 -3638 0
-3637 -3639 0
-3637 -3640 0
-3638 -3639 0
-3638 -3640 0
-3639 -3640 0
3641 3642 3643 3644 0
-3641 -3642 0
-3641 -3643 0
-3641 -3644 0
-3642 -3643 0
-3642 -3644 0
-3643 -3644 0
3645 3646 3647 3648 0
-3645 -3646 0
-3645 -3647 0
-3645 -3648 0
-3646 -3647 0
-3646 -3648 0
-3647 -3648 0
3649 3650 3651 3652 0
-3649 -3650 0
-3649 -3651 0
-3649 -3652 0
-3650 -3651 0
-3650 -3652 0
-3651 -3652 0
3653 3654 3655 3656 0
-3653 -3654 0
-3653 -3655 0
-3653 -3656 0
-3654 -3655 0
-3654 -3656 0
-3655 -3656 0
3657 3658 3659 3660 0
-3657 -3658 0
-3657 -3659 0
-3657 -3660 0
-3658 -3659 0
-3658 -3660 0
-3659 -3660 0
3661 3662 3663 3664 0
-3661 -3662 0
-3661 -3663 0
-3661 -3664 0
-3662 -3663 0
-3662 -3664 0
-3663 -3664 0
3665 3666 3667 3668 0
-3665 -3666 0
-3665 -3667 0
-3665 -3668 0
-3666 -3667 0
-3666 -3668 0
-3667 -3668 0
3669 3670 3671 3672 0
-3669 -3670 0
-3669 -3671 0
-3669 -3672 0
-3670 -3671 0
-3670 -3672 0
-3671 -3672 0
3673 3674 3675 3676 0
-3673 -3674 0
-3673 -3675 0
-3673 -3676 0
-3674 -3675 0
-3674 -3676 0
-3675 -3676 0
3677 3678 3679 3680 0
-3677 -3678 0
-3677 -3679 0
-3677 -3680 0
-3678 -3679 0
-3678 -3680 0
-3679 -3680 0
3681 3682 3683 3684 0
-3681 -3682 0
-3681 -3683 0
-3681 -3684 0
-3682 -3683 0
-3682 -3684 0
-3683 -3684 0
3685 3686 3687 3688 0
-3685 -3686 0
-3685 -3687 0
-3685 -3688 0
-3686 -3687 0
-3686 -3688 0
-3687 -3688 0
3689 3690 3691 3692 0
-3689 -3690 0
-3689 -3691 0
-3689 -3692 0
-3690 -3691 0
-3690 -3692 0
-3691 -3692 0
3693 3694 3695 3696 0
-3693 -3694 0
-3693 -3695 0
-3693 -3696 0
-3694 -3695 0
-3694 -3696 0
-3695 -3696 0
3697 3698 3699 3700 0
-3697 -3698 0
-3697 -3699 0
-3697 -3700 0
-3698 -3699 0
-3698 -3700 0
-3699 -3700 0
3701 3702 3703 3704 0
-3701 -3702 0
-3701 -3703 0
-3701 -3704 0
-3702 -3703 0
-3702 -3704 0
-3703 -3704 0
3705 3706 3707 3708 0
-3705 -3706 0
-3705 -3707 0
-3705 -3708 0
-3706 -3707 0
-3706 -3708 0
-3707 -3708 0
3709 3710 3711 3712 0
-3709 -3710 0
-3709 -3711 0
-3709 -3712 0
-3710 -3711 0
-3710 -3712 0
-3711 -3712 0
3713 3714 3715 3716 0
-3713 -3714 0
-3713 -3715 0
-3713 -3716 0
-3714 -3715 0
-3714 -3716 0
-3715 -3716 0
3717 3718 3719 3720 0
-3717 -3718 0
-3717 -3719 0
-3717 -3720 0
-3718 -3719 0
-3718 -3720 0
-3719 -3720 0
3721 3722 3723 3724 0
-3721 -3722 0
-3721 -3723 0
-3721 -3724 0
-3722 -3723 0
-3722 -3724 0
-3723 -3724 0
3725 3726 3727 3728 0
-3725 -3726 0
-3725 -3727 0
-3725 -3728 0
-3726 -3727 0
-3726 -3728 0
-3727 -3728 0
3729 3730 3731 3732 0
-3729 -3730 0
-3729 -3731 0
-3729 -3732 0
-3730 -3731 0
-3730 -3732 0
-3731 -3732 0
3733 3734 3735 3736 0
-3733 -3734 0
-3733 -3735 0
-3733 -3736 0
-3734 -3735 0
-3734 -3736 0
-3735 -3736 0
3737 3738 3739 3740 0
-3737 -3738 0
-3737 -3739 0
-3737 -3740 0
-3738 -3739 0
-3738 -3740 0
-3739 -3740 0
3741 3742 3743 3744 0
-3741 -3742 0
-3741 -3743 0
-3741 -3744 0
-3742 -3743 0
-3742 -3744 0
-3743 -3744 0
3745 3746 3747 3748 0
-3745 -3746 0
-3745 -3747 0
-3745 -3748 0
-3746 -3747 0
-3746 -3748 0
-3747 -3748 0
3749 3750 3751 3752 0
-3749 -3750 0
-3749 -3751 0
-3749 -3752 0
-3750 -3751 0
-3750 -3752 0
-3751 -3752 0
3753 3754 3755 3756 0
-3753 -3754 0
-3753 -3755 0
-3753 -3756 0
-3754 -3755 0
-3754 -3756 0
-3755 -3756 0
3757 3758 3759 3760 0
-3757 -3758 0
-3757 -3759 0
-3757 -3760 0
-3758 -3759 0
-3758 -3760 0
-3759 -3760 0
3761 3762 3763 3764 0
-3761 -3762 0
-3761 -3763 0
-3761 -3764 0
-3762 -3763 0
-3762 -3764 0
-3763 -3764 0
3765 3766 3767 3768 0
-3765 -3766 0
-3765 -3767 0
-3765 -3768 0
-3766 -3767 0
-3766 -3768 0
-3767 -3768 0
3769 3770 3771 3772 0
-3769 -3770 0
-3769 -3771 0
-3769 -3772 0
-3770 -3771 0
-3770 -3772 0
-3771 -3772 0
3773 3774 3775 3776 0
-3773 -3774 0
-3773 -3775 0
-3773 -3776 0
-3774 -3775 0
-3774 -3776 0
-3775 -3776 0
3777 3778 3779 3780 0
-3777 -3778 0
-3777 -3779 0
-3777 -3780 0
-3778 -3779 0
-3778 -3780 0
-3779 -3780 0
3781 3782 3783 3784 0
-3781 -3782 0
-3781 -3783 0
-3781 -3784 0
-3782 -3783 0
-3782 -3784 0
-3783 -3784 0
3785 3786 3787 3788 0
-3785 -3786 0
-3785 -3787 0
-3785 -3788 0
-3786 -3787 0
-3786 -3788 0
-3787 -3788 0
3789 3790 3791 3792 0
-3789 -3790 0
-3789 -3791 0
-3789 -3792 0
-3790 -3791 0
-3790 -3792 0
-3791 -3792 0
3793 3794 3795 3796 0
-3793 -3794 0
-3793 -3795 0
-3793 -3796 0
-3794 -3795 0
-3794 -3796 0
-3795 -3796 0
3797 3798 3799 3800 0
-3797 -3798 0
-3797 -3799 0
-3797 -3800 0
-3798 -3799 0
-3798 -3800 0
-3799 -3800 0
3801 3802 3803 3804 0
-3801 -3802 0
-3801 -3803 0
-3801 -3804 0
-3802 -3803 0
-3802 -3804 0
-3803 -3804 0
3805 3806 3807 3808 0
-3805 -3806 0
-3805 -3807 0
-3805 -3808 0
-3806 -3807 0
-3806 -3808 0
-3807 -3808 0
3809 3810 3811 3812 0
-3809 -3810 0
-3809 -3811 0
-3809 -3812 0
-3810 -3811 0
-3810 -3812 0
-3811 -3812 0
3813 3814 3815 3816 0
-3813 -3814 0
-3813 -3815 0
-3813 -3816 0
-3814 -3815 0
-3814 -3816 0
-3815 -3816 0
3817 3818 3819 3820 0
-3817 -3818 0
-3817 -3819 0
-3817 -3820 0
-3818 -3819 0
-3818 -3820 0
-3819 -3820 0
3821 3822 3823 3824 0
-3821 -3822 0
-3821 -3823 0
-3821 -3824 0
-3822 -3823 0
-3822 -3824 0
-3823 -3824 0
3825 3826 3827 3828 0
-3825 -3826 0
-3825 -3827 0
-3825 -3828 0
-3826 -3827 0
-3826 -3828 0
-3827 -3828 0
3829 3830 3831 3832 0
-3829 -3830 0
-3829 -3831 0
-3829 -3832 0
-3830 -3831 0
-3830 -3832 0
-3831 -3832 0
3833 3834 3835 3836 0
-3833 -3834 0
-3833 -3835 0
-3833 -3836 0
-3834 -3835 0
-3834 -3836 0
-3835 -3836 0
3837 3838 3839 3840 0
-3837 -3838 0
-3837 -3839 0
-3837 -3840 0
-3838 -3839 0
-3838 -3840 0
-3839 -3840 0
3841 3842 3843 3844 0
-3841 -3842 0
-3841 -3843 0
-3841 -3844 0
-3842 -3843 0
-3842 -3844 0
-3843 -3844 0
3845 3846 3847 3848 0
-3845 -3846 0
-3845 -3847 0
-3845 -3848 0
-3846 -3847 0
-3846 -3848 0
-3847 -3848 0
3849 3850 3851 3852 0
-3849 -3850 0
-3849 -3851 0
-3849 -3852 0
-3850 -3851 0
-3850 -3852 0
-3851 -3852 0
3853 3854 3855 3856 0
-3853 -3854 0
-3853 -3855 0
-3853 -3856 0
-3854 -3855 0
-3854 -3856 0
-3855 -3856 0
3857 3858 3859 3860 0
-3857 -3858 0
-3857 -3859 0
-3857 -3860 0
-3858 -3859 0
-3858 -3860 0
-3859 -3860 0
3861 3862 3863 3864 0
-3861 -3862 0
-3861 -3863 0
-3861 -3864 0
-3862 -3863 0
-3862 -3864 0
-3863 -3864 0
3865 3866 3867 3868 0
-3865 -3866 0
-3865 -3867 0
-3865 -3868 0
-3866 -3867 0
-3866 -3868 0
-3867 -3868 0
3869 3870 3871 3872 0
-3869 -3870 0
-3869 -3871 0
-3869 -3872 0
-3870 -3871 0
-3870 -3872 0
-3871 -3872 0
3873 3874 3875 3876 0
-3873 -3874 0
-3873 -3875 0
-3873 -3876 0
-3874 -3875 0
-3874 -3876 0
-3875 -3876 0
3877 3878 3879 3880 0
-3877 -3878 0
-3877 -3879 0
-3877 -3880 0
-3878 -3879 0
-3878 -3880 0
-3879 -3880 0
3881 3882 3883 3884 0
-3881 -3882 0
-3881 -3883 0
-3881 -3884 0
-3882 -3883 0
-3882 -3884 0
-3883 -3884 0
3885 3886 3887 3888 0
-3885 -3886 0
-3885 -3887 0
-3885 -3888 0
-3886 -3887 0
-3886 -3888 0
-3887 -3888 0
3889 3890 3891 3892 0
-3889 -3890 0
-3889 -3891 0
-3889 -3892 0
-3890 -3891 0
-3890 -3892 0
-3891 -3892 0
3893 3894 3895 3896 0
-3893 -3894 0
-3893 -3895 0
-3893 -3896 0
-3894 -3895 0
-3894 -3896 0
-3895 -3896 0
3897 3898 3899 3900 0
-3897 -3898 0
-3897 -3899 0
-3897 -3900 0
-3898 -3899 0
-3898 -3900 0
-3899 -3900 0
3901 3902 3903 3904 0
-3901 -3902 0
-3901 -3903 0
-3901 -3904 0
-3902 -3903 0
-3902 -3904 0
-3903 -3904 0
3905 3906 3907 3908 0
-3905 -3906 0
-3905 -3907 0
-3905 -3908 0
-3906 -3907 0
-3906 -3908 0
-3907 -3908 0
3909 3910 3911 3912 0
-3909 -3910 0
-3909 -3911 0
-3909 -3912 0
-3910 -3911 0
-3910 -3912 0
-3911 -3912 0
3913 3914 3915 3916 0
-3913 -3914 0
-3913 -3915 0
-3913 -3916 0
-3914 -3915 0
-3914 -3916 0
-3915 -3916 0
3917 3918 3919 3920 0
-3917 -3918 0
-3917 -3919 0
-3917 -3920 0
-3918 -3919 0
-3918 -3920 0
-3919 -3920 0
3921 3922 3923 3924 0
-3921 -3922 0
-3921 -3923 0
-3921 -3924 0
-3922 -3923 0
-3922 -3924 0
-3923 -3924 0
3925 3926 3927 3928 0
-3925 -3926 0
-3925 -3927 0
-3925 -3928 0
-3926 -3927 0
-3926 -3928 0
-3927 -3928 0
3929 3930 3931 3932 0
-3929 -3930 0
-3929 -3931 0
-3929 -3932 0
-3930 -3931 0
-3930 -3932 0
-3931 -3932 0
3933 3934 3935 3936 0
-3933 -3934 0
-3933 -3935 0
-3933 -3936 0
-3934 -3935 0
-3934 -3936 0
-3935 -3936 0
3937 3938 3939 3940 0
-3937 -3938 0
-3937 -3939 0
-3937 -3940 0
-3938 -3939 0
-3938 -3940 0
-3939 -3940 0
3941 3942 3943 3944 0
-3941 -3942 0
-3941 -3943 0
-3941 -3944 0
-3942 -3943 0
-3942 -3944 0
-3943 -3944 0
3945 3946 3947 3948 0
-3945 -3946 0
-3945 -3947 0
-3945 -3948 0
-3946 -3947 0
-3946 -3948 0
-3947 -3948 0
3949 3950 3951 3952 0
-3949 -3950 0
-3949 -3951 0
-3949 -3952 0
-3950 -3951 0
-3950 -3952 0
-3951 -3952 0
3953 3954 3955 3956 0
-3953 -3954 0
-3953 -3955 0
-3953 -3956 0
-3954 -3955 0
-3954 -3956 0
-3955 -3956 0
3957 3958 3959 3960 0
-3957 -3958 0
-3957 -3959 0
-3957 -3960 0
-3958 -3959 0
-3958 -3960 0
-3959 -3960 0
3961 3962 3963 3964 0
-3961 -3962 0
-3961 -3963 0
-3961 -3964 0
-3962 -3963 0
-3962 -3964 0
-3963 -3964 0
3965 3966 3967 3968 0
-3965 -3966 0
-3965 -3967 0
-3965 -3968 0
-3966 -3967 0
-3966 -3968 0
-3967 -3968 0
3969 3970 3971 3972 0
-3969 -3970 0
-3969 -3971 0
-3969 -3972 0
-3970 -3971 0
-3970 -3972 0
-3971 -3972 0
3973 3974 3975 3976 0
-3973 -3974 0
-3973 -3975 0
-3973 -3976 0
-3974 -3975 0
-3974 -3976 0
-3975 -3976 0
3977 3978 3979 3980 0
-3977 -3978 0
-3977 -3979 0
-3977 -3980 0
-3978 -3979 0
-3978 -3980 0
-3979 -3980 0
3981 3982 3983 3984 0
-3981 -3982 0
-3981 -3983 0
-3981 -3984 0
-3982 -3983 0
-3982 -3984 0
-3983 -3984 0
3985 3986 3987 3988 0
-3985 -3986 0
-3985 -3987 0
-3985 -3988 0
-3986 -3987 0
-3986 -3988 0
-3987 -3988 0
3989 3990 3991 3992 0
-3989 -3990 0
-3989 -3991 0
-3989 -3992 0
-3990 -3991 0
-3990 -3992 0
-3991 -3992 0
3993 3994 3995 3996 0
-3993 -3994 0
-3993 -3995 0
-3993 -3996 0
-3994 -3995 0
-3994 -3996 0
-3995 -3996 0
3997 3998 3999 4000 0
-3997 -3998 0
-3997 -3999 0
-3997 -4000 0
-3998 -3999 0
-3998 -4000 0
-3999 -4000 0
4001 4002 4003 4004 0
-4001 -4002 0
-4001 -4003 0
-4001 -4004 0
-4002 -4003 0
-4002 -4004 0
-4003 -4004 0
4005 4006 4007 4008 0
-4005 -4006 0
-4005 -4007 0
-4005 -4008 0
-4006 -4007 0
-4006 -4008 0
-4007 -4008 0
4009 4010 4011 4012 0
-4009 -4010 0
-4009 -4011 0
-4009 -4012 0
-4010 -4011 0
-4010 -4012 0
-4011 -4012 0
4013 4014 4015 4016 0
-4013 -4014 0
-4013 -4015 0
-4013 -4016 0
-4014 -4015 0
-4014 -4016 0
-4015 -4016 0
4017 4018 4019 4020 0
-4017 -4018 0
-4017 -4019 0
-4017 -4020 0
-4018 -4019 0
-4018 -4020 0
-4019 -4020 0
4021 4022 4023 4024 0
-4021 -4022 0
-4021 -4023 0
-4021 -4024 0
-4022 -4023 0
-4022 -4024 0
-4023 -4024 0
4025 4026 4027 4028 0
-4025 -4026 0
-4025 -4027 0
-4025 -4028 0
-4026 -4027 0
-4026 -4028 0
-4027 -4028 0
4029 4030 4031 4032 0
-4029 -4030 0
-4029 -4031 0
-4029 -4032 0
-4030 -4031 0
-4030 -4032 0
-4031 -4032 0
4033 4034 4035 4036 0
-4033 -4034 0
-4033 -4035 0
-4033 -4036 0
-4034 -4035 0
-4034 -4036 0
-4035 -4036 0
4037 4038 4039 4040 0
-4037 -4038 0
-4037 -4039 0
-4037 -4040 0
-4038 -4039 0
-4038 -4040 0
-4039 -4040 0
4041 4042 4043 4044 0
-4041 -4042 0
-4041 -4043 0
-4041 -4044 0
-4042 -4043 0
-4042 -4044 0
-4043 -4044 0
4045 4046 4047 4048 0
-4045 -4046 0
-4045 -4047 0
-4045 -4048 0
-4046 -4047 0
-4046 -4048 0
-4047 -4048 0
4049 4050 4051 4052 0
-4049 -4050 0
-4049 -4051 0
-4049 -4052 0
-4050 -4051 0
-4050 -4052 0
-4051 -4052 0
4053 4054 4055 4056 0
-4053 -4054 0
-4053 -4055 0
-4053 -4056 0
-4054 -4055 0
-4054 -4056 0
-4055 -4056 0
4057 4058 4059 4060 0
-4057 -4058 0
-4057 -4059 0
-4057 -4060 0
-4058 -4059 0
-4058 -4060 0
-4059 -4060 0
4061 4062 4063 4064 0
-4061 -4062 0
-4061 -4063 0
-4061 -4064 0
-4062 -4063 0
-4062 -4064 0
-4063 -4064 0
4065 4066 4067 4068 0
-4065 -4066 0
-4065 -4067 0
-4065 -4068 0
-4066 -4067 0
-4066 -4068 0
-4067 -4068 0
4069 4070 4071 4072 0
-4069 -4070 0
-4069 -4071 0
-4069 -4072 0
-4070 -4071 0
-4070 -4072 0
-4071 -4072 0
4073 4074 4075 4076 0
-4073 -4074 0
-4073 -4075 0
-4073 -4076 0
-4074 -4075 0
-4074 -4076 0
-4075 -4076 0
4077 4078 4079 4080 0
-4077 -4078 0
-4077 -4079 0
-4077 -4080 0
-4078 -4079 0
-4078 -4080 0
-4079 -4080 0
4081 4082 4083 4084 0
-4081 -4082 0
-4081 -4083 0
-4081 -4084 0
-4082 -4083 0
-4082 -4084 0
-4083 -4084 0
4085 4086 4087 4088 0
-4085 -4086 0
-4085 -4087 0
-4085 -4088 0
-4086 -4087 0
-4086 -4088 0
-4087 -4088 0
4089 4090 4091 4092 0
-4089 -4090 0
-4089 -4091 0
-4089 -4092 0
-4090 -4091 0
-4090 -4092 0
-4091 -4092 0
4093 4094 4095 4096 0
-4093 -4094 0
-4093 -4095 0
-4093 -4096 0
-4094 -4095 0
-4094 -4096 0
-4095 -4096 0
4097 4098 4099 4100 0
-4097 -4098 0
-4097 -4099 0
-4097 -4100 0
-4098 -4099 0
-4098 -4100 0
-4099 -4100 0
4101 4102 4103 4104 0
-4101 -4102 0
-4101 -4103 0
-4101 -4104 0
-4102 -4103 0
-4102 -4104 0
-4103 -4104 0
4105 4106 4107 4108 0
-4105 -4106 0
-4105 -4107 0
-4105 -4108 0
-4106 -4107 0
-4106 -4108 0
-4107 -4108 0
4109 4110 4111 4112 0
-4109 -4110 0
-4109 -4111 0
-4109 -4112 0
-4110 -4111 0
-4110 -4112 0
-4111 -4112 0
4113 4114 4115 4116 0
-4113 -4114 0
-4113 -4115 0
-4113 -4116 0
-4114 -4115 0
-4114 -4116 0
-4115 -4116 0
4117 4118 4119 4120 0
-4117 -4118 0
-4117 -4119 0
-4117 -4120 0
-4118 -4119 0
-4118 -4120 0
-4119 -4120 0
4121 4122 4123 4124 0
-4121 -4122 0
-4121 -4123 0
-4121 -4124 0
-4122 -4123 0
-4122 -4124 0
-4123 -4124 0
4125 4126 4127 4128 0
-4125 -4126 0
-4125 -4127 0
-4125 -4128 0
-4126 -4127 0
-4126 -4128 0
-4127 -4128 0
4129 4130 4131 4132 0
-4129 -4130 0
-4129 -4131 0
-4129 -4132 0
-4130 -4131 0
-4130 -4132 0
-4131 -4132 0
4133 4134 4135 4136 0
-4133 -4134 0
-4133 -4135 0
-4133 -4136 0
-4134 -4135 0
-4134 -4136 0
-4135 -4136 0
4137 4138 4139 4140 0
-4137 -4138 0
-4137 -4139 0
-4137 -4140 0
-4138 -4139 0
-4138 -4140 0
-4139 -4140 0
4141 4142 4143 4144 0
-4141 -4142 0
-4141 -4143 0
-4141 -4144 0
-4142 -4143 0
-4142 -4144 0
-4143 -4144 0
4145 4146 4147 4148 0
-4145 -4146 0
-4145 -4147 0
-4145 -4148 0
-4146 -4147 0
-4146 -4148 0
-4147 -4148 0
4149 4150 4151 4152 0
-4149 -4150 0
-4149 -4151 0
-4149 -4152 0
-4150 -4151 0
-4150 -4152 0
-4151 -4152 0
4153 4154 4155 4156 0
-4153 -4154 0
-4153 -4155 0
-4153 -4156 0
-4154 -4155 0
-4154 -4156 0
-4155 -4156 0
4157 4158 4159 4160 0
-4157 -4158 0
-4157 -4159 0
-4157 -4160 0
-4158 -4159 0
-4158 -4160 0
-4159 -4160 0
4161 4162 4163 4164 0
-4161 -4162 0
-4161 -4163 0
-4161 -4164 0
-4162 -4163 0
-4162 -4164 0
-4163 -4164 0
4165 4166 4167 4168 0
-4165 -4166 0
-4165 -4167 0
-4165 -4168 0
-4166 -4167 0
-4166 -4168 0
-4167 -4168 0
4169 4170 4171 4172 0
-4169 -4170 0
-4169 -4171 0
-4169 -4172 0
-4170 -4171 0
-4170 -4172 0
-4171 -4172 0
4173 4174 4175 4176 0
-4173 -4174 0
-4173 -4175 0
-4173 -4176 0
-4174 -4175 0
-4174 -4176 0
-4175 -4176 0
4177 4178 4179 4180 0
-4177 -4178 0
-4177 -4179 0
-4177 -4180 0
-4178 -4179 0
-4178 -4180 0
-4179 -4180 0
4181 4182 4183 4184 0
-4181 -4182 0
-4181 -4183 0
-4181 -4184 0
-4182 -4183 0
-4182 -4184 0
-4183 -4184 0
4185 4186 4187 4188 0
-4185 -4186 0
-4185 -4187 0
-4185 -4188 0
-4186 -4187 0
-4186 -4188 0
-4187 -4188 0
4189 4190 4191 4192 0
-4189 -4190 0
-4189 -4191 0
-4189 -4192 0
-4190 -4191 0
-4190 -4192 0
-4191 -4192 0
4193 4194 4195 4196 0
-4193 -4194 0
-4193 -4195 0
-4193 -4196 0
-4194 -4195 0
-4194 -4196 0
-4195 -4196 0
4197 4198 4199 4200 0
-4197 -4198 0
-4197 -4199 0
-4197 -4200 0
-4198 -4199 0
-4198 -4200 0
-4199 -4200 0
4201 4202 4203 4204 0
-4201 -4202 0
-4201 -4203 0
-4201 -4204 0
-4202 -4203 0
-4202 -4204 0
-4203 -4204 0
4205 4206 4207 4208 0
-4205 -4206 0
-4205 -4207 0
-4205 -4208 0
-4206 -4207 0
-4206 -4208 0
-4207 -4208 0
4209 4210 4211 4212 0
-4209 -4210 0
-4209 -4211 0
-4209 -4212 0
-4210 -4211 0
-4210 -4212 0
-4211 -4212 0
4213 4214 4215 4216 0
-4213 -4214 0
-4213 -4215 0
-4213 -4216 0
-4214 -4215 0
-4214 -4216 0
-4215 -4216 0
4217 4218 4219 4220 0
-4217 -4218 0
-4217 -4219 0
-4217 -4220 0
-4218 -4219 0
-4218 -4220 0
-4219 -4220 0
4221 4222 4223 4224 0
-4221 -4222 0
-4221 -4223 0
-4221 -4224 0
-4222 -4223 0
-4222 -4224 0
-4223 -4224 0
4225 4226 4227 4228 0
-4225 -4226 0
-4225 -4227 0
-4225 -4228 0
-4226 -4227 0
-4226 -4228 0
-4227 -4228 0
4229 4230 4231 4232 0
-4229 -4230 0
-4229 -4231 0
-4229 -4232 0
-4230 -4231 0
-4230 -4232 0
-4231 -4232 0
4233 4234 4235 4236 0
-4233 -4234 0
-4233 -4235 0
-4233 -4236 0
-4234 -4235 0
-4234 -4236 0
-4235 -4236 0
4237 4238 4239 4240 0
-4237 -4238 0
-4237 -4239 0
-4237 -4240 0
-4238 -4239 0
-4238 -4240 0
-4239 -4240 0
4241 4242 4243 4244 0
-4241 -4242 0
-4241 -4243 0
-4241 -4244 0
-4242 -4243 0
-4242 -4244 0
-4243 -4244 0
4245 4246 4247 4248 0
-4245 -4246 0
-4245 -4247 0
-4245 -4248 0
-4246 -4247 0
-4246 -4248 0
-4247 -4248 0
4249 4250 4251 4252 0
-4249 -4250 0
-4249 -4251 0
-4249 -4252 0
-4250 -4251 0
-4250 -4252 0
-4251 -4252 0
4253 4254 4255 4256 0
-4253 -4254 0
-4253 -4255 0
-4253 -4256 0
-4254 -4255 0
-4254 -4256 0
-4255 -4256 0
4257 4258 4259 4260 0
-4257 -4258 0
-4257 -4259 0
-4257 -4260 0
-4258 -4259 0
-4258 -4260 0
-4259 -4260 0
4261 4262 4263 4264 0
-4261 -4262 0
-4261 -4263 0
-4261 -4264 0
-4262 -4263 0
-4262 -4264 0
-4263 -4264 0
4265 4266 4267 4268 0
-4265 -4266 0
-4265 -4267 0
-4265 -4268 0
-4266 -4267 0
-4266 -4268 0
-4267 -4268 0
4269 4270 4271 4272 0
-4269 -4270 0
-4269 -4271 0
-4269 -4272 0
-4270 -4271 0
-4270 -4272 0
-4271 -4272 0
4273 4274 4275 4276 0
-4273 -4274 0
-4273 -4275 0
-4273 -4276 0
-4274 -4275 0
-4274 -4276 0
-4275 -4276 0
4277 4278 4279 4280 0
-4277 -4278 0
-4277 -4279 0
-4277 -4280 0
-4278 -4279 0
-4278 -4280 0
-4279 -4280 0
4281 4282 4283 4284 0
-4281 -4282 0
-4281 -4283 0
-4281 -4284 0
-4282 -4283 0
-4282 -4284 0
-4283 -4284 0
4285 4286 4287 4288 0
-4285 -4286 0
-4285 -4287 0
-4285 -4288 0
-4286 -4287 0
-4286 -4288 0
-4287 -4288 0
4289 4290 4291 4292 0
-4289 -4290 0
-4289 -4291 0
-4289 -4292 0
-4290 -4291 0
-4290 -4292 0
-4291 -4292 0
4293 4294 4295 4296 0
-4293 -4294 0
-4293 -4295 0
-4293 -4296 0
-4294 -4295 0
-4294 -4296 0
-4295 -4296 0
4297 4298 4299 4300 0
-4297 -4298 0
-4297 -4299 0
-4297 -4300 0
-4298 -4299 0
-4298 -4300 0
-4299 -4300 0
4301 4302 4303 4304 0
-4301 -4302 0
-4301 -4303 0
-4301 -4304 0
-4302 -4303 0
-4302 -4304 0
-4303 -4304 0
4305 4306 4307 4308 0
-4305 -4306 0
-4305 -4307 0
-4305 -4308 0
-4306 -4307 0
-4306 -4308 0
-4307 -4308 0
4309 4310 4311 4312 0
-4309 -4310 0
-4309 -4311 0
-4309 -4312 0
-4310 -4311 0
-4310 -4312 0
-4311 -4312 0
4313 4314 4315 4316 0
-4313 -4314 0
-4313 -4315 0
-4313 -4316 0
-4314 -4315 0
-4314 -4316 0
-4315 -4316 0
4317 4318 4319 4320 0
-4317 -4318 0
-4317 -4319 0
-4317 -4320 0
-4318 -4319 0
-4318 -4320 0
-4319 -4320 0
4321 4322 4323 4324 0
-4321 -4322 0
-4321 -4323 0
-4321 -4324 0
-4322 -4323 0
-4322 -4324 0
-4323 -4324 0
4325 4326 4327 4328 0
-4325 -4326 0
-4325 -4327 0
-4325 -4328 0
-4326 -4327 0
-4326 -4328 0
-4327 -4328 0
4329 4330 4331 4332 0
-4329 -4330 0
-4329 -4331 0
-4329 -4332 0
-4330 -4331 0
-4330 -4332 0
-4331 -4332 0
4333 4334 4335 4336 0
-4333 -4334 0
-4333 -4335 0
-4333 -4336 0
-4334 -4335 0
-4334 -4336 0
-4335 -4336 0
4337 4338 4339 4340 0
-4337 -4338 0
-4337 -4339 0
-4337 -4340 0
-4338 -4339 0
-4338 -4340 0
-4339 -4340 0
4341 4342 4343 4344 0
-4341 -4342 0
-4341 -4343 0
-4341 -4344 0
-4342 -4343 0
-4342 -4344 0
-4343 -4344 0
4345 4346 4347 4348 0
-4345 -4346 0
-4345 -4347 0
-4345 -4348 0
-4346 -4347 0
-4346 -4348 0
-4347 -4348 0
4349 4350 4351 4352 0
-4349 -4350 0
-4349 -4351 0
-4349 -4352 0
-4350 -4351 0
-4350 -4352 0
-4351 -4352 0
4353 4354 4355 4356 0
-4353 -4354 0
-4353 -4355 0
-4353 -4356 0
-4354 -4355 0
-4354 -4356 0
-4355 -4356 0
4357 4358 4359 4360 0
-4357 -4358 0
-4357 -4359 0
-4357 -4360 0
-4358 -4359 0
-4358 -4360 0
-4359 -4360 0
4361 4362 4363 4364 0
-4361 -4362 0
-4361 -4363 0
-4361 -4364 0
-4362 -4363 0
-4362 -4364 0
-4363 -4364 0
4365 4366 4367 4368 0
-4365 -4366 0
-4365 -4367 0
-4365 -4368 0
-4366 -4367 0
-4366 -4368 0
-4367 -4368 0
4369 4370 4371 4372 0
-4369 -4370 0
-4369 -4371 0
-4369 -4372 0
-4370 -4371 0
-4370 -4372 0
-4371 -4372 0
4373 4374 4375 4376 0
-4373 -4374 0
-4373 -4375 0
-4373 -4376 0
-4374 -4375 0
-4374 -4376 0
-4375 -4376 0
4377 4378 4379 4380 0
-4377 -4378 0
-4377 -4379 0
-4377 -4380 0
-4378 -4379 0
-4378 -4380 0
-4379 -4380 0
4381 4382 4383 4384 0
-4381 -4382 0
-4381 -4383 0
-4381 -4384 0
-4382 -4383 0
-4382 -4384 0
-4383 -4384 0
4385 4386 4387 4388 0
-4385 -4386 0
-4385 -4387 0
-4385 -4388 0
-4386 -4387 0
-4386 -4388 0
-4387 -4388 0
4389 4390 4391 4392 0
-4389 -4390 0
-4389 -4391 0
-4389 -4392 0
-4390 -4391 0
-4390 -4392 0
-4391 -4392 0
4393 4394 4395 4396 0
-4393 -4394 0
-4393 -4395 0
-4393 -4396 0
-4394 -4395 0
-4394 -4396 0
-4395 -4396 0
4397 4398 4399 4400 0
-4397 -4398 0
-4397 -4399 0
-4397 -4400 0
-4398 -4399 0
-4398 -4400 0
-4399 -4400 0
4401 4402 4403 4404 0
-4401 -4402 0
-4401 -4403 0
-4401 -4404 0
-4402 -4403 0
-4402 -4404 0
-4403 -4404 0
4405 4406 4407 4408 0
-4405 -4406 0
-4405 -4407 0
-4405 -4408 0
-4406 -4407 0
-4406 -4408 0
-4407 -4408 0
4409 4410 4411 4412 0
-4409 -4410 0
-4409 -4411 0
-4409 -4412 0
-4410 -4411 0
-4410 -4412 0
-4411 -4412 0
4413 4414 4415 4416 0
-4413 -4414 0
-4413 -4415 0
-4413 -4416 0
-4414 -4415 0
-4414 -4416 0
-4415 -4416 0
4417 4418 4419 4420 0
-4417 -4418 0
-4417 -4419 0
-4417 -4420 0
-4418 -4419 0
-4418 -4420 0
-4419 -4420 0
4421 4422 4423 4424 0
-4421 -4422 0
-4421 -4423 0
-4421 -4424 0
-4422 -4423 0
-4422 -4424 0
-4423 -4424 0
4425 4426 4427 4428 0
-4425 -4426 0
-4425 -4427 0
-4425 -4428 0
-4426 -4427 0
-4426 -4428 0
-4427 -4428 0
4429 4430 4431 4432 0
-4429 -4430 0
-4429 -4431 0
-4429 -4432 0
-4430 -4431 0
-4430 -4432 0
-4431 -4432 0
4433 4434 4435 4436 0
-4433 -4434 0
-4433 -4435 0
-4433 -4436 0
-4434 -4435 0
-4434 -4436 0
-4435 -4436 0
4437 4438 4439 4440 0
-4437 -4438 0
-4437 -4439 0
-4437 -4440 0
-4438 -4439 0
-4438 -4440 0
-4439 -4440 0
4441 4442 4443 4444 0
-4441 -4442 0
-4441 -4443 0
-4441 -4444 0
-4442 -4443 0
-4442 -4444 0
-4443 -4444 0
4445 4446 4447 4448 0
-4445 -4446 0
-4445 -4447 0
-4445 -4448 0
-4446 -4447 0
-4446 -4448 0
-4447 -4448 0
4449 4450 4451 4452 0
-4449 -4450 0
-4449 -4451 0
-4449 -4452 0
-4450 -4451 0
-4450 -4452 0
-4451 -4452 0
4453 4454 4455 4456 0
-4453 -4454 0
-4453 -4455 0
-4453 -4456 0
-4454 -4455 0
-4454 -4456 0
-4455 -4456 0
4457 4458 4459 4460 0
-4457 -4458 0
-4457 -4459 0
-4457 -4460 0
-4458 -4459 0
-4458 -4460 0
-4459 -4460 0
4461 4462 4463 4464 0
-4461 -4462 0
-4461 -4463 0
-4461 -4464 0
-4462 -4463 0
-4462 -4464 0
-4463 -4464 0
4465 4466 4467 4468 0
-4465 -4466 0
-4465 -4467 0
-4465 -4468 0
-4466 -4467 0
-4466 -4468 0
-4467 -4468 0
4469 4470 4471 4472 0
-4469 -4470 0
-4469 -4471 0
-4469 -4472 0
-4470 -4471 0
-4470 -4472 0
-4471 -4472 0
4473 4474 4475 4476 0
-4473 -4474 0
-4473 -4475 0
-4473 -4476 0
-4474 -4475 0
-4474 -4476 0
-4475 -4476 0
4477 4478 4479 4480 0
-4477 -4478 0
-4477 -4479 0
-4477 -4480 0
-4478 -4479 0
-4478 -4480 0
-4479 -4480 0
4481 4482 4483 4484 0
-4481 -4482 0
-4481 -4483 0
-4481 -4484 0
-4482 -4483 0
-4482 -4484 0
-4483 -4484 0
4485 4486 4487 4488 0
-4485 -4486 0
-4485 -4487 0
-4485 -4488 0
-4486 -4487 0
-4486 -4488 0
-4487 -4488 0
4489 4490 4491 4492 0
-4489 -4490 0
-4489 -4491 0
-4489 -4492 0
-4490 -4491 0
-4490 -4492 0
-4491 -4492 0
4493 4494 4495 4496 0
-4493 -4494 0
-4493 -4495 0
-4493 -4496 0
-4494 -4495 0
-4494 -4496 0
-4495 -4496 0
4497 4498 4499 4500 0
-4497 -4498 0
-4497 -4499 0
-4497 -4500 0
-4498 -4499 0
-4498 -4500 0
-4499 -4500 0
4501 4502 4503 4504 0
-4501 -4502 0
-4501 -4503 0
-4501 -4504 0
-4502 -4503 0
-4502 -4504 0
-4503 -4504 0
4505 4506 4507 4508 0
-4505 -4506 0
-4505 -4507 0
-4505 -4508 0
-4506 -4507 0
-4506 -4508 0
-4507 -4508 0
4509 4510 4511 4512 0
-4509 -4510 0
-4509 -4511 0
-4509 -4512 0
-4510 -4511 0
-4510 -4512 0
-4511 -4512 0
4513 4514 4515 4516 0
-4513 -4514 0
-4513 -4515 0
-4513 -4516 0
-4514 -4515 0
-4514 -4516 0
-4515 -4516 0
4517 4518 4519 4520 0
-4517 -4518 0
-4517 -4519 0
-4517 -4520 0
-4518 -4519 0
-4518 -4520 0
-4519 -4520 0
4521 4522 4523 4524 0
-4521 -4522 0
-4521 -4523 0
-4521 -4524 0
-4522 -4523 0
-4522 -4524 0
-4523 -4524 0
4525 4526 4527 4528 0
-4525 -4526 0
-4525 -4527 0
-4525 -4528 0
-4526 -4527 0
-4526 -4528 0
-4527 -4528 0
4529 4530 4531 4532 0
-4529 -4530 0
-4529 -4531 0
-4529 -4532 0
-4530 -4531 0
-4530 -4532 0
-4531 -4532 0
4533 4534 4535 4536 0
-4533 -4534 0
-4533 -4535 0
-4533 -4536 0
-4534 -4535 0
-4534 -4536 0
-4535 -4536 0
4537 4538 4539 4540 0
-4537 -4538 0
-4537 -4539 0
-4537 -4540 0
-4538 -4539 0
-4538 -4540 0
-4539 -4540 0
4541 4542 4543 4544 0
-4541 -4542 0
-4541 -4543 0
-4541 -4544 0
-4542 -4543 0
-4542 -4544 0
-4543 -4544 0
4545 4546 4547 4548 0
-4545 -4546 0
-4545 -4547 0
-4545 -4548 0
-4546 -4547 0
-4546 -4548 0
-4547 -4548 0
4549 4550 4551 4552 0
-4549 -4550 0
-4549 -4551 0
-4549 -4552 0
-4550 -4551 0
-4550 -4552 0
-4551 -4552 0
4553 4554 4555 4556 0
-4553 -4554 0
-4553 -4555 0
-4553 -4556 0
-4554 -4555 0
-4554 -4556 0
-4555 -4556 0
4557 4558 4559 4560 0
-4557 -4558 0
-4557 -4559 0
-4557 -4560 0
-4558 -4559 0
-4558 -4560 0
-4559 -4560 0
4561 4562 4563 4564 0
-4561 -4562 0
-4561 -4563 0
-4561 -4564 0
-4562 -4563 0
-4562 -4564 0
-4563 -4564 0
4565 4566 4567 4568 0
-4565 -4566 0
-4565 -4567 0
-4565 -4568 0
-4566 -4567 0
-4566 -4568 0
-4567 -4568 0
4569 4570 4571 4572 0
-4569 -4570 0
-4569 -4571 0
-4569 -4572 0
-4570 -4571 0
-4570 -4572 0
-4571 -4572 0
4573 4574 4575 4576 0
-4573 -4574 0
-4573 -4575 0
-4573 -4576 0
-4574 -4575 0
-4574 -4576 0
-4575 -4576 0
4577 4578 4579 4580 0
-4577 -4578 0
-4577 -4579 0
-4577 -4580 0
-4578 -4579 0
-4578 -4580 0
-4579 -4580 0
4581 4582 4583 4584 0
-4581 -4582 0
-4581 -4583 0
-4581 -4584 0
-4582 -4583 0
-4582 -4584 0
-4583 -4584 0
4585 4586 4587 4588 0
-4585 -4586 0
-4585 -4587 0
-4585 -4588 0
-4586 -4587 0
-4586 -4588 0
-4587 -4588 0
4589 4590 4591 4592 0
-4589 -4590 0
-4589 -4591 0
-4589 -4592 0
-4590 -4591 0
-4590 -4592 0
-4591 -4592 0
4593 4594 4595 4596 0
-4593 -4594 0
-4593 -4595 0
-4593 -4596 0
-4594 -4595 0
-4594 -4596 0
-4595 -4596 0
4597 4598 4599 4600 0
-4597 -4598 0
-4597 -4599 0
-4597 -4600 0
-4598 -4599 0
-4598 -4600 0
-4599 -4600 0
4601 4602 4603 4604 0
-4601 -4602 0
-4601 -4603 0
-4601 -4604 0
-4602 -4603 0
-4602 -4604 0
-4603 -4604 0
4605 4606 4607 4608 0
-4605 -4606 0
-4605 -4607 0
-4605 -4608 0
-4606 -4607 0
-4606 -4608 0
-4607 -4608 0
4609 4610 4611 4612 0
-4609 -4610 0
-4609 -4611 0
-4609 -4612 0
-4610 -4611 0
-4610 -4612 0
-4611 -4612 0
4613 4614 4615 4616 0
-4613 -4614 0
-4613 -4615 0
-4613 -4616 0
-4614 -4615 0
-4614 -4616 0
-4615 -4616 0
4617 4618 4619 4620 0
-4617 -4618 0
-4617 -4619 0
-4617 -4620 0
-4618 -4619 0
-4618 -4620 0
-4619 -4620 0
4621 4622 4623 4624 0
-4621 -4622 0
-4621 -4623 0
-4621 -4624 0
-4622 -4623 0
-4622 -4624 0
-4623 -4624 0
4625 4626 4627 4628 0
-4625 -4626 0
-4625 -4627 0
-4625 -4628 0
-4626 -4627 0
-4626 -4628 0
-4627 -4628 0
4629 4630 4631 4632 0
-4629 -4630 0
-4629 -4631 0
-4629 -4632 0
-4630 -4631 0
-4630 -4632 0
-4631 -4632 0
4633 4634 4635 4636 0
-4633 -4634 0
-4633 -4635 0
-4633 -4636 0
-4634 -4635 0
-4634 -4636 0
-4635 -4636 0
4637 4638 4639 4640 0
-4637 -4638 0
-4637 -4639 0
-4637 -4640 0
-4638 -4639 0
-4638 -4640 0
-4639 -4640 0
4641 4642 4643 4644 0
-4641 -4642 0
-4641 -4643 0
-4641 -4644 0
-4642 -4643 0
-4642 -4644 0
-4643 -4644 0
4645 4646 4647 4648 0
-4645 -4646 0
-4645 -4647 0
-4645 -4648 0
-4646 -4647 0
-4646 -4648 0
-4647 -4648 0
4649 4650 4651 4652 0
-4649 -4650 0
-4649 -4651 0
-4649 -4652 0
-4650 -4651 0
-4650 -4652 0
-4651 -4652 0
4653 4654 4655 4656 0
-4653 -4654 0
-4653 -4655 0
-4653 -4656 0
-4654 -4655 0
-4654 -4656 0
-4655 -4656 0
4657 4658 4659 4660 0
-4657 -4658 0
-4657 -4659 0
-4657 -4660 0
-4658 -4659 0
-4658 -4660 0
-4659 -4660 0
4661 4662 4663 4664 0
-4661 -4662 0
-4661 -4663 0
-4661 -4664 0
-4662 -4663 0
-4662 -4664 0
-4663 -4664 0
4665 4666 4667 4668 0
-4665 -4666 0
-4665 -4667 0
-4665 -4668 0
-4666 -4667 0
-4666 -4668 0
-4667 -4668 0
4669 4670 4671 4672 0
-4669 -4670 0
-4669 -4671 0
-4669 -4672 0
-4670 -4671 0
-4670 -4672 0
-4671 -4672 0
4673 4674 4675 4676 0
-4673 -4674 0
-4673 -4675 0
-4673 -4676 0
-4674 -4675 0
-4674 -4676 0
-4675 -4676 0
4677 4678 4679 4680 0
-4677 -4678 0
-4677 -4679 0
-4677 -4680 0
-4678 -4679 0
-4678 -4680 0
-4679 -4680 0
4681 4682 4683 4684 0
-4681 -4682 0
-4681 -4683 0
-4681 -4684 0
-4682 -4683 0
-4682 -4684 0
-4683 -4684 0
4685 4686 4687 4688 0
-4685 -4686 0
-4685 -4687 0
-4685 -4688 0
-4686 -4687 0
-4686 -4688 0
-4687 -4688 0
4689 4690 4691 4692 0
-4689 -4690 0
-4689 -4691 0
-4689 -4692 0
-4690 -4691 0
-4690 -4692 0
-4691 -4692 0
4693 4694 4695 4696 0
-4693 -4694 0
-4693 -4695 0
-4693 -4696 0
-4694 -4695 0
-4694 -4696 0
-4695 -4696 0
4697 4698 4699 4700 0
-4697 -4698 0
-4697 -4699 0
-4697 -4700 0
-4698 -4699 0
-4698 -4700 0
-4699 -4700 0
4701 4702 4703 4704 0
-4701 -4702 0
-4701 -4703 0
-4701 -4704 0
-4702 -4703 0
-4702 -4704 0
-4703 -4704 0
4705 4706 4707 4708 0
-4705 -4706 0
-4705 -4707 0
-4705 -4708 0
-4706 -4707 0
-4706 -4708 0
-4707 -4708 0
4709 4710 4711 4712 0
-4709 -4710 0
-4709 -4711 0
-4709 -4712 0
-4710 -4711 0
-4710 -4712 0
-4711 -4712 0
4713 4714 4715 4716 0
-4713 -4714 0
-4713 -4715 0
-4713 -4716 0
-4714 -4715 0
-4714 -4716 0
-4715 -4716 0
4717 4718 4719 4720 0
-4717 -4718 0
-4717 -4719 0
-4717 -4720 0
-4718 -4719 0
-4718 -4720 0
-4719 -4720 0
4721 4722 4723 4724 0
-4721 -4722 0
-4721 -4723 0
-4721 -4724 0
-4722 -4723 0
-4722 -4724 0
-4723 -4724 0
4725 4726 4727 4728 0
-4725 -4726 0
-4725 -4727 0
-4725 -4728 0
-4726 -4727 0
-4726 -4728 0
-4727 -4728 0
4729 4730 4731 4732 0
-4729 -4730 0
-4729 -4731 0
-4729 -4732 0
-4730 -4731 0
-4730 -4732 0
-4731 -4732 0
4733 4734 4735 4736 0
-4733 -4734 0
-4733 -4735 0
-4733 -4736 0
-4734 -4735 0
-4734 -4736 0
-4735 -4736 0
4737 4738 4739 4740 0
-4737 -4738 0
-4737 -4739 0
-4737 -4740 0
-4738 -4739 0
-4738 -4740 0
-4739 -4740 0
4741 4742 4743 4744 0
-4741 -4742 0
-4741 -4743 0
-4741 -4744 0
-4742 -4743 0
-4742 -4744 0
-4743 -4744 0
4745 4746 4747 4748 0
-4745 -4746 0
-4745 -4747 0
-4745 -4748 0
-4746 -4747 0
-4746 -4748 0
-4747 -4748 0
4749 4750 4751 4752 0
-4749 -4750 0
-4749 -4751 0
-4749 -4752 0
-4750 -4751 0
-4750 -4752 0
-4751 -4752 0
4753 4754 4755 4756 0
-4753 -4754 0
-4753 -4755 0
-4753 -4756 0
-4754 -4755 0
-4754 -4756 0
-4755 -4756 0
4757 4758 4759 4760 0
-4757 -4758 0
-4757 -4759 0
-4757 -4760 0
-4758 -4759 0
-4758 -4760 0
-4759 -4760 0
4761 4762 4763 4764 0
-4761 -4762 0
-4761 -4763 0
-4761 -4764 0
-4762 -4763 0
-4762 -4764 0
-4763 -4764 0
4765 4766 4767 4768 0
-4765 -4766 0
-4765 -4767 0
-4765 -4768 0
-4766 -4767 0
-4766 -4768 0
-4767 -4768 0
4769 4770 4771 4772 0
-4769 -4770 0
-4769 -4771 0
-4769 -4772 0
-4770 -4771 0
-4770 -4772 0
-4771 -4772 0
4773 4774 4775 4776 0
-4773 -4774 0
-4773 -4775 0
-4773 -4776 0
-4774 -4775 0
-4774 -4776 0
-4775 -4776 0
4777 4778 4779 4780 0
-4777 -4778 0
-4777 -4779 0
-4777 -4780 0
-4778 -4779 0
-4778 -4780 0
-4779 -4780 0
4781 4782 4783 4784 0
-4781 -4782 0
-4781 -4783 0
-4781 -4784 0
-4782 -4783 0
-4782 -4784 0
-4783 -4784 0
4785 4786 4787 4788 0
-4785 -4786 0
-4785 -4787 0
-4785 -4788 0
-4786 -4787 0
-4786 -4788 0
-4787 -4788 0
4789 4790 4791 4792 0
-4789 -4790 0
-4789 -4791 0
-4789 -4792 0
-4790 -4791 0
-4790 -4792 0
-4791 -4792 0
4793 4794 4795 4796 0
-4793 -4794 0
-4793 -4795 0
-4793 -4796 0
-4794 -4795 0
-4794 -4796 0
-4795 -4796 0
4797 4798 4799 4800 0
-4797 -4798 0
-4797 -4799 0
-4797 -4800 0
-4798 -4799 0
-4798 -4800 0
-4799 -4800 0
4801 4802 4803 4804 0
-4801 -4802 0
-4801 -4803 0
-4801 -4804 0
-4802 -4803 0
-4802 -4804 0
-4803 -4804 0
4805 4806 4807 4808 0
-4805 -4806 0
-4805 -4807 0
-4805 -4808 0
-4806 -4807 0
-4806 -4808 0
-4807 -4808 0
4809 4810 4811 4812 0
-4809 -4810 0
-4809 -4811 0
-4809 -4812 0
-4810 -4811 0
-4810 -4812 0
-4811 -4812 0
4813 4814 4815 4816 0
-4813 -4814 0
-4813 -4815 0
-4813 -4816 0
-4814 -4815 0
-4814 -4816 0
-4815 -4816 0
4817 4818 4819 4820 0
-4817 -4818 0
-4817 -4819 0
-4817 -4820 0
-4818 -4819 0
-4818 -4820 0
-4819 -4820 0
4821 4822 4823 4824 0
-4821 -4822 0
-4821 -4823 0
-4821 -4824 0
-4822 -4823 0
-4822 -4824 0
-4823 -4824 0
4825 4826 4827 4828 0
-4825 -4826 0
-4825 -4827 0
-4825 -4828 0
-4826 -4827 0
-4826 -4828 0
-4827 -4828 0
4829 4830 4831 4832 0
-4829 -4830 0
-4829 -4831 0
-4829 -4832 0
-4830 -4831 0
-4830 -4832 0
-4831 -4832 0
4833 4834 4835 4836 0
-4833 -4834 0
-4833 -4835 0
-4833 -4836 0
-4834 -4835 0
-4834 -4836 0
-4835 -4836 0
4837 4838 4839 4840 0
-4837 -4838 0
-4837 -4839 0
-4837 -4840 0
-4838 -4839 0
-4838 -4840 0
-4839 -4840 0
4841 4842 4843 4844 0
-4841 -4842 0
-4841 -4843 0
-4841 -4844 0
-4842 -4843 0
-4842 -4844 0
-4843 -4844 0
4845 4846 4847 4848 0
-4845 -4846 0
-4845 -4847 0
-4845 -4848 0
-4846 -4847 0
-4846 -4848 0
-4847 -4848 0
4849 4850 4851 4852 0
-4849 -4850 0
-4849 -4851 0
-4849 -4852 0
-4850 -4851 0
-4850 -4852 0
-4851 -4852 0
4853 4854 4855 4856 0
-4853 -4854 0
-4853 -4855 0
-4853 -4856 0
-4854 -4855 0
-4854 -4856 0
-4855 -4856 0
4857 4858 4859 4860 0
-4857 -4858 0
-4857 -4859 0
-4857 -4860 0
-4858 -4859 0
-4858 -4860 0
-4859 -4860 0
4861 4862 4863 4864 0
-4861 -4862 0
-4861 -4863 0
-4861 -4864 0
-4862 -4863 0
-4862 -4864 0
-4863 -4864 0
4865 4866 4867 4868 0
-4865 -4866 0
-4865 -4867 0
-4865 -4868 0
-4866 -4867 0
-4866 -4868 0
-4867 -4868 0
4869 4870 4871 4872 0
-4869 -4870 0
-4869 -4871 0
-4869 -4872 0
-4870 -4871 0
-4870 -4872 0
-4871 -4872 0
4873 4874 4875 4876 0
-4873 -4874 0
-4873 -4875 0
-4873 -4876 0
-4874 -4875 0
-4874 -4876 0
-4875 -4876 0
4877 4878 4879 4880 0
-4877 -4878 0
-4877 -4879 0
-4877 -4880 0
-4878 -4879 0
-4878 -4880 0
-4879 -4880 0
4881 4882 4883 4884 0
-4881 -4882 0
-4881 -4883 0
-4881 -4884 0
-4882 -4883 0
-4882 -4884 0
-4883 -4884 0
4885 4886 4887 4888 0
-4885 -4886 0
-4885 -4887 0
-4885 -4888 0
-4886 -4887 0
-4886 -4888 0
-4887 -4888 0
4889 4890 4891 4892 0
-4889 -4890 0
-4889 -4891 0
-4889 -4892 0
-4890 -4891 0
-4890 -4892 0
-4891 -4892 0
4893 4894 4895 4896 0
-4893 -4894 0
-4893 -4895 0
-4893 -4896 0
-4894 -4895 0
-4894 -4896 0
-4895 -4896 0
4897 4898 4899 4900 0
-4897 -4898 0
-4897 -4899 0
-4897 -4900 0
-4898 -4899 0
-4898 -4900 0
-4899 -4900 0
4901 4902 4903 4904 0
-4901 -4902 0
-4901 -4903 0
-4901 -4904 0
-4902 -4903 0
-4902 -4904 0
-4903 -4904 0
4905 4906 4907 4908 0
-4905 -4906 0
-4905 -4907 0
-4905 -4908 0
-4906 -4907 0
-4906 -4908 0
-4907 -4908 0
4909 4910 4911 4912 0
-4909 -4910 0
-4909 -4911 0
-4909 -4912 0
-4910 -4911 0
-4910 -4912 0
-4911 -4912 0
4913 4914 4915 4916 0
-4913 -4914 0
-4913 -4915 0
-4913 -4916 0
-4914 -4915 0
-4914 -4916 0
-4915 -4916 0
4917 4918 4919 4920 0
-4917 -4918 0
-4917 -4919 0
-4917 -4920 0
-4918 -4919 0
-4918 -4920 0
-4919 -4920 0
4921 4922 4923 4924 0
-4921 -4922 0
-4921 -4923 0
-4921 -4924 0
-4922 -4923 0
-4922 -4924 0
-4923 -4924 0
4925 4926 4927 4928 0
-4925 -4926 0
-4925 -4927 0
-4925 -4928 0
-4926 -4927 0
-4926 -4928 0
-4927 -4928 0
4929 4930 4931 4932 0
-4929 -4930 0
-4929 -4931 0
-4929 -4932 0
-4930 -4931 0
-4930 -4932 0
-4931 -4932 0
4933 4934 4935 4936 0
-4933 -4934 0
-4933 -4935 0
-4933 -4936 0
-4934 -4935 0
-4934 -4936 0
-4935 -4936 0
4937 4938 4939 4940 0
-4937 -4938 0
-4937 -4939 0
-4937 -4940 0
-4938 -4939 0
-4938 -4940 0
-4939 -4940 0
4941 4942 4943 4944 0
-4941 -4942 0
-4941 -4943 0
-4941 -4944 0
-4942 -4943 0
-4942 -4944 0
-4943 -4944 0
4945 4946 4947 4948 0
-4945 -4946 0
-4945 -4947 0
-4945 -4948 0
-4946 -4947 0
-4946 -4948 0
-4947 -4948 0
4949 4950 4951 4952 0
-4949 -4950 0
-4949 -4951 0
-4949 -4952 0
-4950 -4951 0
-4950 -4952 0
-4951 -4952 0
4953 4954 4955 4956 0
-4953 -4954 0
-4953 -4955 0
-4953 -4956 0
-4954 -4955 0
-4954 -4956 0
-4955 -4956 0
4957 4958 4959 4960 0
-4957 -4958 0
-4957 -4959 0
-4957 -4960 0
-4958 -4959 0
-4958 -4960 0
-4959 -4960 0
4961 4962 4963 4964 0
-4961 -4962 0
-4961 -4963 0
-4961 -4964 0
-4962 -4963 0
-4962 -4964 0
-4963 -4964 0
4965 4966 4967 4968 0
-4965 -4966 0
-4965 -4967 0
-4965 -4968 0
-4966 -4967 0
-4966 -4968 0
-4967 -4968 0
4969 4970 4971 4972 0
-4969 -4970 0
-4969 -4971 0
-4969 -4972 0
-4970 -4971 0
-4970 -4972 0
-4971 -4972 0
4973 4974 4975 4976 0
-4973 -4974 0
-4973 -4975 0
-4973 -4976 0
-4974 -4975 0
-4974 -4976 0
-4975 -4976 0
4977 4978 4979 4980 0
-4977 -4978 0
-4977 -4979 0
-4977 -4980 0
-4978 -4979 0
-4978 -4980 0
-4979 -4980 0
4981 4982 4983 4984 0
-4981 -4982 0
-4981 -4983 0
-4981 -4984 0
-4982 -4983 0
-4982 -4984 0
-4983 -4984 0
4985 4986 4987 4988 0
-4985 -4986 0
-4985 -4987 0
-4985 -4988 0
-4986 -4987 0
-4986 -4988 0
-4987 -4988 0
4989 4990 4991 4992 0
-4989 -4990 0
-4989 -4991 0
-4989 -4992 0
-4990 -4991 0
-4990 -4992 0
-4991 -4992 0
4993 4994 4995 4996 0
-4993 -4994 0
-4993 -4995 0
-4993 -4996 0
-4994 -4995 0
-4994 -4996 0
-4995 -4996 0
4997 4998 4999 5000 0
-4997 -4998 0
-4997 -4999 0
-4997 -5000 0
-4998 -4999 0
-4998 -5000 0
-4999 -5000 0
5001 5002 5003 5004 0
-5001 -5002 0
-5001 -5003 0
-5001 -5004 0
-5002 -5003 0
-5002 -5004 0
-5003 -5004 0
5005 5006 5007 5008 0
-5005 -5006 0
-5005 -5007 0
-5005 -5008 0
-5006 -5007 0
-5006 -5008 0
-5007 -5008 0
5009 5010 5011 5012 0
-5009 -5010 0
-5009 -5011 0
-5009 -5012 0
-5010 -5011 0
-5010 -5012 0
-5011 -5012 0
5013 5014 5015 5016 0
-5013 -5014 0
-5013 -5015 0
-5013 -5016 0
-5014 -5015 0
-5014 -5016 0
-5015 -5016 0
5017 5018 5019 5020 0
-5017 -5018 0
-5017 -5019 0
-5017 -5020 0
-5018 -5019 0
-5018 -5020 0
-5019 -5020 0
5021 5022 5023 5024 0
-5021 -5022 0
-5021 -5023 0
-5021 -5024 0
-5022 -5023 0
-5022 -5024 0
-5023 -5024 0
5025 5026 5027 5028 0
-5025 -5026 0
-5025 -5027 0
-5025 -5028 0
-5026 -5027 0
-5026 -5028 0
-5027 -5028 0
5029 5030 5031 5032 0
-5029 -5030 0
-5029 -5031 0
-5029 -5032 0
-5030 -5031 0
-5030 -5032 0
-5031 -5032 0
5033 5034 5035 5036 0
-5033 -5034 0
-5033 -5035 0
-5033 -5036 0
-5034 -5035 0
-5034 -5036 0
-5035 -5036 0
5037 5038 5039 5040 0
-5037 -5038 0
-5037 -5039 0
-5037 -5040 0
-5038 -5039 0
-5038 -5040 0
-5039 -5040 0
5041 5042 5043 5044 0
-5041 -5042 0
-5041 -5043 0
-5041 -5044 0
-5042 -5043 0
-5042 -5044 0
-5043 -5044 0
5045 5046 5047 5048 0
-5045 -5046 0
-5045 -5047 0
-5045 -5048 0
-5046 -5047 0
-5046 -5048 0
-5047 -5048 0
5049 5050 5051 5052 0
-5049 -5050 0
-5049 -5051 0
-5049 -5052 0
-5050 -5051 0
-5050 -5052 0
-5051 -5052 0
5053 5054 5055 5056 0
-5053 -5054 0
-5053 -5055 0
-5053 -5056 0
-5054 -5055 0
-5054 -5056 0
-5055 -5056 0
5057 5058 5059 5060 0
-5057 -5058 0
-5057 -5059 0
-5057 -5060 0
-5058 -5059 0
-5058 -5060 0
-5059 -5060 0
5061 5062 5063 5064 0
-5061 -5062 0
-5061 -5063 0
-5061 -5064 0
-5062 -5063 0
-5062 -5064 0
-5063 -5064 0
5065 5066 5067 5068 0
-5065 -5066 0
-5065 -5067 0
-5065 -5068 0
-5066 -5067 0
-5066 -5068 0
-5067 -5068 0
5069 5070 5071 5072 0
-5069 -5070 0
-5069 -5071 0
-5069 -5072 0
-5070 -5071 0
-5070 -5072 0
-5071 -5072 0
5073 5074 5075 5076 0
-5073 -5074 0
-5073 -5075 0
-5073 -5076 0
-5074 -5075 0
-5074 -5076 0
-5075 -5076 0
5077 5078 5079 5080 0
-5077 -5078 0
-5077 -5079 0
-5077 -5080 0
-5078 -5079 0
-5078 -5080 0
-5079 -5080 0
5081 5082 5083 5084 0
-5081 -5082 0
-5081 -5083 0
-5081 -5084 0
-5082 -5083 0
-5082 -5084 0
-5083 -5084 0
5085 5086 5087 5088 0
-5085 -5086 0
-5085 -5087 0
-5085 -5088 0
-5086 -5087 0
-5086 -5088 0
-5087 -5088 0
5089 5090 5091 5092 0
-5089 -5090 0
-5089 -5091 0
-5089 -5092 0
-5090 -5091 0
-5090 -5092 0
-5091 -5092 0
5093 5094 5095 5096 0
-5093 -5094 0
-5093 -5095 0
-5093 -5096 0
-5094 -5095 0
-5094 -5096 0
-5095 -5096 0
5097 5098 5099 5100 0
-5097 -5098 0
-5097 -5099 0
-5097 -5100 0
-5098 -5099 0
-5098 -5100 0
-5099 -5100 0
5101 5102 5103 5104 0
-5101 -5102 0
-5101 -5103 0
-5101 -5104 0
-5102 -5103 0
-5102 -5104 0
-5103 -5104 0
5105 5106 5107 5108 0
-5105 -5106 0
-5105 -5107 0
-5105 -5108 0
-5106 -5107 0
-5106 -5108 0
-5107 -5108 0
5109 5110 5111 5112 0
-5109 -5110 0
-5109 -5111 0
-5109 -5112 0
-5110 -5111 0
-5110 -5112 0
-5111 -5112 0
5113 5114 5115 5116 0
-5113 -5114 0
-5113 -5115 0
-5113 -5116 0
-5114 -5115 0
-5114 -5116 0
-5115 -5116 0
5117 5118 5119 5120 0
-5117 -5118 0
-5117 -5119 0
-5117 -5120 0
-5118 -5119 0
-5118 -5120 0
-5119 -5120 0
5121 5122 5123 5124 0
-5121 -5122 0
-5121 -5123 0
-5121 -5124 0
-5122 -5123 0
-5122 -5124 0
-5123 -5124 0
5125 5126 5127 5128 0
-5125 -5126 0
-5125 -5127 0
-5125 -5128 0
-5126 -5127 0
-5126 -5128 0
-5127 -5128 0
5129 5130 5131 5132 0
-5129 -5130 0
-5129 -5131 0
-5129 -5132 0
-5130 -5131 0
-5130 -5132 0
-5131 -5132 0
5133 5134 5135 5136 0
-5133 -5134 0
-5133 -5135 0
-5133 -5136 0
-5134 -5135 0
-5134 -5136 0
-5135 -5136 0
5137 5138 5139 5140 0
-5137 -5138 0
-5137 -5139 0
-5137 -5140 0
-5138 -5139 0
-5138 -5140 0
-5139 -5140 0
5141 5142 5143 5144 0
-5141 -5142 0
-5141 -5143 0
-5141 -5144 0
-5142 -5143 0
-5142 -5144 0
-5143 -5144 0
5145 5146 5147 5148 0
-5145 -5146 0
-5145 -5147 0
-5145 -5148 0
-5146 -5147 0
-5146 -5148 0
-5147 -5148 0
5149 5150 5151 5152 0
-5149 -5150 0
-5149 -5151 0
-5149 -5152 0
-5150 -5151 0
-5150 -5152 0
-5151 -5152 0
5153 5154 5155 5156 0
-5153 -5154 0
-5153 -5155 0
-5153 -5156 0
-5154 -5155 0
-5154 -5156 0
-5155 -5156 0
5157 5158 5159 5160 0
-5157 -5158 0
-5157 -5159 0
-5157 -5160 0
-5158 -5159 0
-5158 -5160 0
-5159 -5160 0
5161 5162 5163 5164 0
-5161 -5162 0
-5161 -5163 0
-5161 -5164 0
-5162 -5163 0
-5162 -5164 0
-5163 -5164 0
5165 5166 5167 5168 0
-5165 -5166 0
-5165 -5167 0
-5165 -5168 0
-5166 -5167 0
-5166 -5168 0
-5167 -5168 0
5169 5170 5171 5172 0
-5169 -5170 0
-5169 -5171 0
-5169 -5172 0
-5170 -5171 0
-5170 -5172 0
-5171 -5172 0
5173 5174 5175 5176 0
-5173 -5174 0
-5173 -5175 0
-5173 -5176 0
-5174 -5175 0
-5174 -5176 0
-5175 -5176 0
5177 5178 5179 5180 0
-5177 -5178 0
-5177 -5179 0
-5177 -5180 0
-5178 -5179 0
-5178 -5180 0
-5179 -5180 0
5181 5182 5183 5184 0
-5181 -5182 0
-5181 -5183 0
-5181 -5184 0
-5182 -5183 0
-5182 -5184 0
-5183 -5184 0
5185 5186 5187 5188 0
-5185 -5186 0
-5185 -5187 0
-5185 -5188 0
-5186 -5187 0
-5186 -5188 0
-5187 -5188 0
5189 5190 5191 5192 0
-5189 -5190 0
-5189 -5191 0
-5189 -5192 0
-5190 -5191 0
-5190 -5192 0
-5191 -5192 0
5193 5194 5195 5196 0
-5193 -5194 0
-5193 -5195 0
-5193 -5196 0
-5194 -5195 0
-5194 -5196 0
-5195 -5196 0
5197 5198 5199 5200 0
-5197 -5198 0
-5197 -5199 0
-5197 -5200 0
-5198 -5199 0
-5198 -5200 0
-5199 -5200 0
5201 5202 5203 5204 0
-5201 -5202 0
-5201 -5203 0
-5201 -5204 0
-5202 -5203 0
-5202 -5204 0
-5203 -5204 0
5205 5206 5207 5208 0
-5205 -5206 0
-5205 -5207 0
-5205 -5208 0
-5206 -5207 0
-5206 -5208 0
-5207 -5208 0
5209 5210 5211 5212 0
-5209 -5210 0
-5209 -5211 0
-5209 -5212 0
-5210 -5211 0
-5210 -5212 0
-5211 -5212 0
5213 5214 5215 5216 0
-5213 -5214 0
-5213 -5215 0
-5213 -5216 0
-5214 -5215 0
-5214 -5216 0
-5215 -5216 0
5217 5218 5219 5220 0
-5217 -5218 0
-5217 -5219 0
-5217 -5220 0
-5218 -5219 0
-5218 -5220 0
-5219 -5220 0
5221 5222 5223 5224 0
-5221 -5222 0
-5221 -5223 0
-5221 -5224 0
-5222 -5223 0
-5222 -5224 0
-5223 -5224 0
5225 5226 5227 5228 0
-5225 -5226 0
-5225 -5227 0
-5225 -5228 0
-5226 -5227 0
-5226 -5228 0
-5227 -5228 0
5229 5230 5231 5232 0
-5229 -5230 0
-5229 -5231 0
-5229 -5232 0
-5230 -5231 0
-5230 -5232 0
-5231 -5232 0
5233 5234 5235 5236 0
-5233 -5234 0
-5233 -5235 0
-5233 -5236 0
-5234 -5235 0
-5234 -5236 0
-5235 -5236 0
5237 5238 5239 5240 0
-5237 -5238 0
-5237 -5239 0
-5237 -5240 0
-5238 -5239 0
-5238 -5240 0
-5239 -5240 0
5241 5242 5243 5244 0
-5241 -5242 0
-5241 -5243 0
-5241 -5244 0
-5242 -5243 0
-5242 -5244 0
-5243 -5244 0
5245 5246 5247 5248 0
-5245 -5246 0
-5245 -5247 0
-5245 -5248 0
-5246 -5247 0
-5246 -5248 0
-5247 -5248 0
5249 5250 5251 5252 0
-5249 -5250 0
-5249 -5251 0
-5249 -5252 0
-5250 -5251 0
-5250 -5252 0
-5251 -5252 0
5253 5254 5255 5256 0
-5253 -5254 0
-5253 -5255 0
-5253 -5256 0
-5254 -5255 0
-5254 -5256 0
-5255 -5256 0
5257 5258 5259 5260 0
-5257 -5258 0
-5257 -5259 0
-5257 -5260 0
-5258 -5259 0
-5258 -5260 0
-5259 -5260 0
5261 5262 5263 5264 0
-5261 -5262 0
-5261 -5263 0
-5261 -5264 0
-5262 -5263 0
-5262 -5264 0
-5263 -5264 0
5265 5266 5267 5268 0
-5265 -5266 0
-5265 -5267 0
-5265 -5268 0
-5266 -5267 0
-5266 -5268 0
-5267 -5268 0
5269 5270 5271 5272 0
-5269 -5270 0
-5269 -5271 0
-5269 -5272 0
-5270 -5271 0
-5270 -5272 0
-5271 -5272 0
5273 5274 5275 5276 0
-5273 -5274 0
-5273 -5275 0
-5273 -5276 0
-5274 -5275 0
-5274 -5276 0
-5275 -5276 0
5277 5278 5279 5280 0
-5277 -5278 0
-5277 -5279 0
-5277 -5280 0
-5278 -5279 0
-5278 -5280 0
-5279 -5280 0
5281 5282 5283 5284 0
-5281 -5282 0
-5281 -5283 0
-5281 -5284 0
-5282 -5283 0
-5282 -5284 0
-5283 -5284 0
5285 5286 5287 5288 0
-5285 -5286 0
-5285 -5287 0
-5285 -5288 0
-5286 -5287 0
-5286 -5288 0
-5287 -5288 0
5289 5290 5291 5292 0
-5289 -5290 0
-5289 -5291 0
-5289 -5292 0
-5290 -5291 0
-5290 -5292 0
-5291 -5292 0
5293 5294 5295 5296 0
-5293 -5294 0
-5293 -5295 0
-5293 -5296 0
-5294 -5295 0
-5294 -5296 0
-5295 -5296 0
5297 5298 5299 5300 0
-5297 -5298 0
-5297 -5299 0
-5297 -5300 0
-5298 -5299 0
-5298 -5300 0
-5299 -5300 0
5301 5302 5303 5304 0
-5301 -5302 0
-5301 -5303 0
-5301 -5304 0
-5302 -5303 0
-5302 -5304 0
-5303 -5304 0
5305 5306 5307 5308 0
-5305 -5306 0
-5305 -5307 0
-5305 -5308 0
-5306 -5307 0
-5306 -5308 0
-5307 -5308 0
5309 5310 5311 5312 0
-5309 -5310 0
-5309 -5311 0
-5309 -5312 0
-5310 -5311 0
-5310 -5312 0
-5311 -5312 0
5313 5314 5315 5316 0
-5313 -5314 0
-5313 -5315 0
-5313 -5316 0
-5314 -5315 0
-5314 -5316 0
-5315 -5316 0
5317 5318 5319 5320 0
-5317 -5318 0
-5317 -5319 0
-5317 -5320 0
-5318 -5319 0
-5318 -5320 0
-5319 -5320 0
5321 5322 5323 5324 0
-5321 -5322 0
-5321 -5323 0
-5321 -5324 0
-5322 -5323 0
-5322 -5324 0
-5323 -5324 0
5325 5326 5327 5328 0
-5325 -5326 0
-5325 -5327 0
-5325 -5328 0
-5326 -5327 0
-5326 -5328 0
-5327 -5328 0
5329 5330 5331 5332 0
-5329 -5330 0
-5329 -5331 0
-5329 -5332 0
-5330 -5331 0
-5330 -5332 0
-5331 -5332 0
5333 5334 5335 5336 0
-5333 -5334 0
-5333 -5335 0
-5333 -5336 0
-5334 -5335 0
-5334 -5336 0
-5335 -5336 0
5337 5338 5339 5340 0
-5337 -5338 0
-5337 -5339 0
-5337 -5340 0
-5338 -5339 0
-5338 -5340 0
-5339 -5340 0
5341 5342 5343 5344 0
-5341 -5342 0
-5341 -5343 0
-5341 -5344 0
-5342 -5343 0
-5342 -5344 0
-5343 -5344 0
5345 5346 5347 5348 0
-5345 -5346 0
-5345 -5347 0
-5345 -5348 0
-5346 -5347 0
-5346 -5348 0
-5347 -5348 0
5349 5350 5351 5352 0
-5349 -5350 0
-5349 -5351 0
-5349 -5352 0
-5350 -5351 0
-5350 -5352 0
-5351 -5352 0
5353 5354 5355 5356 0
-5353 -5354 0
-5353 -5355 0
-5353 -5356 0
-5354 -5355 0
-5354 -5356 0
-5355 -5356 0
5357 5358 5359 5360 0
-5357 -5358 0
-5357 -5359 0
-5357 -5360 0
-5358 -5359 0
-5358 -5360 0
-5359 -5360 0
5361 5362 5363 5364 0
-5361 -5362 0
-5361 -5363 0
-5361 -5364 0
-5362 -5363 0
-5362 -5364 0
-5363 -5364 0
5365 5366 5367 5368 0
-5365 -5366 0
-5365 -5367 0
-5365 -5368 0
-5366 -5367 0
-5366 -5368 0
-5367 -5368 0
5369 5370 5371 5372 0
-5369 -5370 0
-5369 -5371 0
-5369 -5372 0
-5370 -5371 0
-5370 -5372 0
-5371 -5372 0
5373 5374 5375 5376 0
-5373 -5374 0
-5373 -5375 0
-5373 -5376 0
-5374 -5375 0
-5374 -5376 0
-5375 -5376 0
5377 5378 5379 5380 0
-5377 -5378 0
-5377 -5379 0
-5377 -5380 0
-5378 -5379 0
-5378 -5380 0
-5379 -5380 0
5381 5382 5383 5384 0
-5381 -5382 0
-5381 -5383 0
-5381 -5384 0
-5382 -5383 0
-5382 -5384 0
-5383 -5384 0
5385 5386 5387 5388 0
-5385 -5386 0
-5385 -5387 0
-5385 -5388 0
-5386 -5387 0
-5386 -5388 0
-5387 -5388 0
5389 5390 5391 5392 0
-5389 -5390 0
-5389 -5391 0
-5389 -5392 0
-5390 -5391 0
-5390 -5392 0
-5391 -5392 0
5393 5394 5395 5396 0
-5393 -5394 0
-5393 -5395 0
-5393 -5396 0
-5394 -5395 0
-5394 -5396 0
-5395 -5396 0
5397 5398 5399 5400 0
-5397 -5398 0
-5397 -5399 0
-5397 -5400 0
-5398 -5399 0
-5398 -5400 0
-5399 -5400 0
5401 5402 5403 5404 0
-5401 -5402 0
-5401 -5403 0
-5401 -5404 0
-5402 -5403 0
-5402 -5404 0
-5403 -5404 0
5405 5406 5407 5408 0
-5405 -5406 0
-5405 -5407 0
-5405 -5408 0
-5406 -5407 0
-5406 -5408 0
-5407 -5408 0
5409 5410 5411 5412 0
-5409 -5410 0
-5409 -5411 0
-5409 -5412 0
-5410 -5411 0
-5410 -5412 0
-5411 -5412 0
5413 5414 5415 5416 0
-5413 -5414 0
-5413 -5415 0
-5413 -5416 0
-5414 -5415 0
-5414 -5416 0
-5415 -5416 0
5417 5418 5419 5420 0
-5417 -5418 0
-5417 -5419 0
-5417 -5420 0
-5418 -5419 0
-5418 -5420 0
-5419 -5420 0
5421 5422 5423 5424 0
-5421 -5422 0
-5421 -5423 0
-5421 -5424 0
-5422 -5423 0
-5422 -5424 0
-5423 -5424 0
5425 5426 5427 5428 0
-5425 -5426 0
-5425 -5427 0
-5425 -5428 0
-5426 -5427 0
-5426 -5428 0
-5427 -5428 0
5429 5430 5431 5432 0
-5429 -5430 0
-5429 -5431 0
-5429 -5432 0
-5430 -5431 0
-5430 -5432 0
-5431 -5432 0
5433 5434 5435 5436 0
-5433 -5434 0
-5433 -5435 0
-5433 -5436 0
-5434 -5435 0
-5434 -5436 0
-5435 -5436 0
5437 5438 5439 5440 0
-5437 -5438 0
-5437 -5439 0
-5437 -5440 0
-5438 -5439 0
-5438 -5440 0
-5439 -5440 0
5441 5442 5443 5444 0
-5441 -5442 0
-5441 -5443 0
-5441 -5444 0
-5442 -5443 0
-5442 -5444 0
-5443 -5444 0
5445 5446 5447 5448 0
-5445 -5446 0
-5445 -5447 0
-5445 -5448 0
-5446 -5447 0
-5446 -5448 0
-5447 -5448 0
5449 5450 5451 5452 0
-5449 -5450 0
-5449 -5451 0
-5449 -5452 0
-5450 -5451 0
-5450 -5452 0
-5451 -5452 0
5453 5454 5455 5456 0
-5453 -5454 0
-5453 -5455 0
-5453 -5456 0
-5454 -5455 0
-5454 -5456 0
-5455 -5456 0
5457 5458 5459 5460 0
-5457 -5458 0
-5457 -5459 0
-5457 -5460 0
-5458 -5459 0
-5458 -5460 0
-5459 -5460 0
5461 5462 5463 5464 0
-5461 -5462 0
-5461 -5463 0
-5461 -5464 0
-5462 -5463 0
-5462 -5464 0
-5463 -5464 0
5465 5466 5467 5468 0
-5465 -5466 0
-5465 -5467 0
-5465 -5468 0
-5466 -5467 0
-5466 -5468 0
-5467 -5468 0
5469 5470 5471 5472 0
-5469 -5470 0
-5469 -5471 0
-5469 -5472 0
-5470 -5471 0
-5470 -5472 0
-5471 -5472 0
5473 5474 5475 5476 0
-5473 -5474 0
-5473 -5475 0
-5473 -5476 0
-5474 -5475 0
-5474 -5476 0
-5475 -5476 0
5477 5478 5479 5480 0
-5477 -5478 0
-5477 -5479 0
-5477 -5480 0
-5478 -5479 0
-5478 -5480 0
-5479 -5480 0
5481 5482 5483 5484 0
-5481 -5482 0
-5481 -5483 0
-5481 -5484 0
-5482 -5483 0
-5482 -5484 0
-5483 -5484 0
5485 5486 5487 5488 0
-5485 -5486 0
-5485 -5487 0
-5485 -5488 0
-5486 -5487 0
-5486 -5488 0
-5487 -5488 0
5489 5490 5491 5492 0
-5489 -5490 0
-5489 -5491 0
-5489 -5492 0
-5490 -5491 0
-5490 -5492 0
-5491 -5492 0
5493 5494 5495 5496 0
-5493 -5494 0
-5493 -5495 0
-5493 -5496 0
-5494 -5495 0
-5494 -5496 0
-5495 -5496 0
5497 5498 5499 5500 0
-5497 -5498 0
-5497 -5499 0
-5497 -5500 0
-5498 -5499 0
-5498 -5500 0
-5499 -5500 0
5501 5502 5503 5504 0
-5501 -5502 0
-5501 -5503 0
-5501 -5504 0
-5502 -5503 0
-5502 -5504 0
-5503 -5504 0
5505 5506 5507 5508 0
-5505 -5506 0
-5505 -5507 0
-5505 -5508 0
-5506 -5507 0
-5506 -5508 0
-5507 -5508 0
5509 5510 5511 5512 0
-5509 -5510 0
-5509 -5511 0
-5509 -5512 0
-5510 -5511 0
-5510 -5512 0
-5511 -5512 0
5513 5514 5515 5516 0
-5513 -5514 0
-5513 -5515 0
-5513 -5516 0
-5514 -5515 0
-5514 -5516 0
-5515 -5516 0
5517 5518 5519 5520 0
-5517 -5518 0
-5517 -5519 0
-5517 -5520 0
-5518 -5519 0
-5518 -5520 0
-5519 -5520 0
5521 5522 5523 5524 0
-5521 -5522 0
-5521 -5523 0
-5521 -5524 0
-5522 -5523 0
-5522 -5524 0
-5523 -5524 0
5525 5526 5527 5528 0
-5525 -5526 0
-5525 -5527 0
-5525 -5528 0
-5526 -5527 0
-5526 -5528 0
-5527 -5528 0
5529 5530 5531 5532 0
-5529 -5530 0
-5529 -5531 0
-5529 -5532 0
-5530 -5531 0
-5530 -5532 0
-5531 -5532 0
5533 5534 5535 5536 0
-5533 -5534 0
-5533 -5535 0
-5533 -5536 0
-5534 -5535 0
-5534 -5536 0
-5535 -5536 0
5537 5538 5539 5540 0
-5537 -5538 0
-5537 -5539 0
-5537 -5540 0
-5538 -5539 0
-5538 -5540 0
-5539 -5540 0
5541 5542 5543 5544 0
-5541 -5542 0
-5541 -5543 0
-5541 -5544 0
-5542 -5543 0
-5542 -5544 0
-5543 -5544 0
5545 5546 5547 5548 0
-5545 -5546 0
-5545 -5547 0
-5545 -5548 0
-5546 -5547 0
-5546 -5548 0
-5547 -5548 0
5549 5550 5551 5552 0
-5549 -5550 0
-5549 -5551 0
-5549 -5552 0
-5550 -5551 0
-5550 -5552 0
-5551 -5552 0
5553 5554 5555 5556 0
-5553 -5554 0
-5553 -5555 0
-5553 -5556 0
-5554 -5555 0
-5554 -5556 0
-5555 -5556 0
5557 5558 5559 5560 0
-5557 -5558 0
-5557 -5559 0
-5557 -5560 0
-5558 -5559 0
-5558 -5560 0
-5559 -5560 0
5561 5562 5563 5564 0
-5561 -5562 0
-5561 -5563 0
-5561 -5564 0
-5562 -5563 0
-5562 -5564 0
-5563 -5564 0
5565 5566 5567 5568 0
-5565 -5566 0
-5565 -5567 0
-5565 -5568 0
-5566 -5567 0
-5566 -5568 0
-5567 -5568 0
5569 5570 5571 5572 0
-5569 -5570 0
-5569 -5571 0
-5569 -5572 0
-5570 -5571 0
-5570 -5572 0
-5571 -5572 0
5573 5574 5575 5576 0
-5573 -5574 0
-5573 -5575 0
-5573 -5576 0
-5574 -5575 0
-5574 -5576 0
-5575 -5576 0
5577 5578 5579 5580 0
-5577 -5578 0
-5577 -5579 0
-5577 -5580 0
-5578 -5579 0
-5578 -5580 0
-5579 -5580 0
5581 5582 5583 5584 0
-5581 -5582 0
-5581 -5583 0
-5581 -5584 0
-5582 -5583 0
-5582 -5584 0
-5583 -5584 0
5585 5586 5587 5588 0
-5585 -5586 0
-5585 -5587 0
-5585 -5588 0
-5586 -5587 0
-5586 -5588 0
-5587 -5588 0
5589 5590 5591 5592 0
-5589 -5590 0
-5589 -5591 0
-5589 -5592 0
-5590 -5591 0
-5590 -5592 0
-5591 -5592 0
5593 5594 5595 5596 0
-5593 -5594 0
-5593 -5595 0
-5593 -5596 0
-5594 -5595 0
-5594 -5596 0
-5595 -5596 0
5597 5598 5599 5600 0
-5597 -5598 0
-5597 -5599 0
-5597 -5600 0
-5598 -5599 0
-5598 -5600 0
-5599 -5600 0
5601 5602 5603 5604 0
-5601 -5602 0
-5601 -5603 0
-5601 -5604 0
-5602 -5603 0
-5602 -5604 0
-5603 -5604 0
5605 5606 5607 5608 0
-5605 -5606 0
-5605 -5607 0
-5605 -5608 0
-5606 -5607 0
-5606 -5608 0
-5607 -5608 0
5609 5610 5611 5612 0
-5609 -5610 0
-5609 -5611 0
-5609 -5612 0
-5610 -5611 0
-5610 -5612 0
-5611 -5612 0
5613 5614 5615 5616 0
-5613 -5614 0
-5613 -5615 0
-5613 -5616 0
-5614 -5615 0
-5614 -5616 0
-5615 -5616 0
5617 5618 5619 5620 0
-5617 -5618 0
-5617 -5619 0
-5617 -5620 0
-5618 -5619 0
-5618 -5620 0
-5619 -5620 0
5621 5622 5623 5624 0
-5621 -5622 0
-5621 -5623 0
-5621 -5624 0
-5622 -5623 0
-5622 -5624 0
-5623 -5624 0
5625 5626 5627 5628 0
-5625 -5626 0
-5625 -5627 0
-5625 -5628 0
-5626 -5627 0
-5626 -5628 0
-5627 -5628 0
5629 5630 5631 5632 0
-5629 -5630 0
-5629 -5631 0
-5629 -5632 0
-5630 -5631 0
-5630 -5632 0
-5631 -5632 0
5633 5634 5635 5636 0
-5633 -5634 0
-5633 -5635 0
-5633 -5636 0
-5634 -5635 0
-5634 -5636 0
-5635 -5636 0
5637 5638 5639 5640 0
-5637 -5638 0
-5637 -5639 0
-5637 -5640 0
-5638 -5639 0
-5638 -5640 0
-5639 -5640 0
5641 5642 5643 5644 0
-5641 -5642 0
-5641 -5643 0
-5641 -5644 0
-5642 -5643 0
-5642 -5644 0
-5643 -5644 0
5645 5646 5647 5648 0
-5645 -5646 0
-5645 -5647 0
-5645 -5648 0
-5646 -5647 0
-5646 -5648 0
-5647 -5648 0
5649 5650 5651 5652 0
-5649 -5650 0
-5649 -5651 0
-5649 -5652 0
-5650 -5651 0
-5650 -5652 0
-5651 -5652 0
5653 5654 5655 5656 0
-5653 -5654 0
-5653 -5655 0
-5653 -5656 0
-5654 -5655 0
-5654 -5656 0
-5655 -5656 0
5657 5658 5659 5660 0
-5657 -5658 0
-5657 -5659 0
-5657 -5660 0
-5658 -5659 0
-5658 -5660 0
-5659 -5660 0
5661 5662 5663 5664 0
-5661 -5662 0
-5661 -5663 0
-5661 -5664 0
-5662 -5663 0
-5662 -5664 0
-5663 -5664 0
5665 5666 5667 5668 0
-5665 -5666 0
-5665 -5667 0
-5665 -5668 0
-5666 -5667 0
-5666 -5668 0
-5667 -5668 0
5669 5670 5671 5672 0
-5669 -5670 0
-5669 -5671 0
-5669 -5672 0
-5670 -5671 0
-5670 -5672 0
-5671 -5672 0
5673 5674 5675 5676 0
-5673 -5674 0
-5673 -5675 0
-5673 -5676 0
-5674 -5675 0
-5674 -5676 0
-5675 -5676 0
5677 5678 5679 5680 0
-5677 -5678 0
-5677 -5679 0
-5677 -5680 0
-5678 -5679 0
-5678 -5680 0
-5679 -5680 0
5681 5682 5683 5684 0
-5681 -5682 0
-5681 -5683 0
-5681 -5684 0
-5682 -5683 0
-5682 -5684 0
-5683 -5684 0
5685 5686 5687 5688 0
-5685 -5686 0
-5685 -5687 0
-5685 -5688 0
-5686 -5687 0
-5686 -5688 0
-5687 -5688 0
5689 5690 5691 5692 0
-5689 -5690 0
-5689 -5691 0
-5689 -5692 0
-5690 -5691 0
-5690 -5692 0
-5691 -5692 0
5693 5694 5695 5696 0
-5693 -5694 0
-5693 -5695 0
-5693 -5696 0
-5694 -5695 0
-5694 -5696 0
-5695 -5696 0
5697 5698 5699 5700 0
-5697 -5698 0
-5697 -5699 0
-5697 -5700 0
-5698 -5699 0
-5698 -5700 0
-5699 -5700 0
5701 5702 5703 5704 0
-5701 -5702 0
-5701 -5703 0
-5701 -5704 0
-5702 -5703 0
-5702 -5704 0
-5703 -5704 0
5705 5706 5707 5708 0
-5705 -5706 0
-5705 -5707 0
-5705 -5708 0
-5706 -5707 0
-5706 -5708 0
-5707 -5708 0
5709 5710 5711 5712 0
-5709 -5710 0
-5709 -5711 0
-5709 -5712 0
-5710 -5711 0
-5710 -5712 0
-5711 -5712 0
5713 5714 5715 5716 0
-5713 -5714 0
-5713 -5715 0
-5713 -5716 0
-5714 -5715 0
-5714 -5716 0
-5715 -5716 0
5717 5718 5719 5720 0
-5717 -5718 0
-5717 -5719 0
-5717 -5720 0
-5718 -5719 0
-5718 -5720 0
-5719 -5720 0
5721 5722 5723 5724 0
-5721 -5722 0
-5721 -5723 0
-5721 -5724 0
-5722 -5723 0
-5722 -5724 0
-5723 -5724 0
5725 5726 5727 5728 0
-5725 -5726 0
-5725 -5727 0
-5725 -5728 0
-5726 -5727 0
-5726 -5728 0
-5727 -5728 0
5729 5730 5731 5732 0
-5729 -5730 0
-5729 -5731 0
-5729 -5732 0
-5730 -5731 0
-5730 -5732 0
-5731 -5732 0
5733 5734 5735 5736 0
-5733 -5734 0
-5733 -5735 0
-5733 -5736 0
-5734 -5735 0
-5734 -5736 0
-5735 -5736 0
5737 5738 5739 5740 0
-5737 -5738 0
-5737 -5739 0
-5737 -5740 0
-5738 -5739 0
-5738 -5740 0
-5739 -5740 0
5741 5742 5743 5744 0
-5741 -5742 0
-5741 -5743 0
-5741 -5744 0
-5742 -5743 0
-5742 -5744 0
-5743 -5744 0
5745 5746 5747 5748 0
-5745 -5746 0
-5745 -5747 0
-5745 -5748 0
-5746 -5747 0
-5746 -5748 0
-5747 -5748 0
5749 5750 5751 5752 0
-5749 -5750 0
-5749 -5751 0
-5749 -5752 0
-5750 -5751 0
-5750 -5752 0
-5751 -5752 0
5753 5754 5755 5756 0
-5753 -5754 0
-5753 -5755 0
-5753 -5756 0
-5754 -5755 0
-5754 -5756 0
-5755 -5756 0
5757 5758 5759 5760 0
-5757 -5758 0
-5757 -5759 0
-5757 -5760 0
-5758 -5759 0
-5758 -5760 0
-5759 -5760 0
5761 5762 5763 5764 0
-5761 -5762 0
-5761 -5763 0
-5761 -5764 0
-5762 -5763 0
-5762 -5764 0
-5763 -5764 0
5765 5766 5767 5768 0
-5765 -5766 0
-5765 -5767 0
-5765 -5768 0
-5766 -5767 0
-5766 -5768 0
-5767 -5768 0
5769 5770 5771 5772 0
-5769 -5770 0
-5769 -5771 0
-5769 -5772 0
-5770 -5771 0
-5770 -5772 0
-5771 -5772 0
5773 5774 5775 5776 0
-5773 -5774 0
-5773 -5775 0
-5773 -5776 0
-5774 -5775 0
-5774 -5776 0
-5775 -5776 0
5777 5778 5779 5780 0
-5777 -5778 0
-5777 -5779 0
-5777 -5780 0
-5778 -5779 0
-5778 -5780 0
-5779 -5780 0
5781 5782 5783 5784 0
-5781 -5782 0
-5781 -5783 0
-5781 -5784 0
-5782 -5783 0
-5782 -5784 0
-5783 -5784 0
5785 5786 5787 5788 0
-5785 -5786 0
-5785 -5787 0
-5785 -5788 0
-5786 -5787 0
-5786 -5788 0
-5787 -5788 0
5789 5790 5791 5792 0
-5789 -5790 0
-5789 -5791 0
-5789 -5792 0
-5790 -5791 0
-5790 -5792 0
-5791 -5792 0
5793 5794 5795 5796 0
-5793 -5794 0
-5793 -5795 0
-5793 -5796 0
-5794 -5795 0
-5794 -5796 0
-5795 -5796 0
5797 5798 5799 5800 0
-5797 -5798 0
-5797 -5799 0
-5797 -5800 0
-5798 -5799 0
-5798 -5800 0
-5799 -5800 0
5801 5802 5803 5804 0
-5801 -5802 0
-5801 -5803 0
-5801 -5804 0
-5802 -5803 0
-5802 -5804 0
-5803 -5804 0
5805 5806 5807 5808 0
-5805 -5806 0
-5805 -5807 0
-5805 -5808 0
-5806 -5807 0
-5806 -5808 0
-5807 -5808 0
5809 5810 5811 5812 0
-5809 -5810 0
-5809 -5811 0
-5809 -5812 0
-5810 -5811 0
-5810 -5812 0
-5811 -5812 0
5813 5814 5815 5816 0
-5813 -5814 0
-5813 -5815 0
-5813 -5816 0
-5814 -5815 0
-5814 -5816 0
-5815 -5816 0
5817 5818 5819 5820 0
-5817 -5818 0
-5817 -5819 0
-5817 -5820 0
-5818 -5819 0
-5818 -5820 0
-5819 -5820 0
5821 5822 5823 5824 0
-5821 -5822 0
-5821 -5823 0
-5821 -5824 0
-5822 -5823 0
-5822 -5824 0
-5823 -5824 0
5825 5826 5827 5828 0
-5825 -5826 0
-5825 -5827 0
-5825 -5828 0
-5826 -5827 0
-5826 -5828 0
-5827 -5828 0
5829 5830 5831 5832 0
-5829 -5830 0
-5829 -5831 0
-5829 -5832 0
-5830 -5831 0
-5830 -5832 0
-5831 -5832 0
5833 5834 5835 5836 0
-5833 -5834 0
-5833 -5835 0
-5833 -5836 0
-5834 -5835 0
-5834 -5836 0
-5835 -5836 0
5837 5838 5839 5840 0
-5837 -5838 0
-5837 -5839 0
-5837 -5840 0
-5838 -5839 0
-5838 -5840 0
-5839 -5840 0
5841 5842 5843 5844 0
-5841 -5842 0
-5841 -5843 0
-5841 -5844 0
-5842 -5843 0
-5842 -5844 0
-5843 -5844 0
5845 5846 5847 5848 0
-5845 -5846 0
-5845 -5847 0
-5845 -5848 0
-5846 -5847 0
-5846 -5848 0
-5847 -5848 0
5849 5850 5851 5852 0
-5849 -5850 0
-5849 -5851 0
-5849 -5852 0
-5850 -5851 0
-5850 -5852 0
-5851 -5852 0
5853 5854 5855 5856 0
-5853 -5854 0
-5853 -5855 0
-5853 -5856 0
-5854 -5855 0
-5854 -5856 0
-5855 -5856 0
5857 5858 5859 5860 0
-5857 -5858 0
-5857 -5859 0
-5857 -5860 0
-5858 -5859 0
-5858 -5860 0
-5859 -5860 0
5861 5862 5863 5864 0
-5861 -5862 0
-5861 -5863 0
-5861 -5864 0
-5862 -5863 0
-5862 -5864 0
-5863 -5864 0
5865 5866 5867 5868 0
-5865 -5866 0
-5865 -5867 0
-5865 -5868 0
-5866 -5867 0
-5866 -5868 0
-5867 -5868 0
5869 5870 5871 5872 0
-5869 -5870 0
-5869 -5871 0
-5869 -5872 0
-5870 -5871 0
-5870 -5872 0
-5871 -5872 0
5873 5874 5875 5876 0
-5873 -5874 0
-5873 -5875 0
-5873 -5876 0
-5874 -5875 0
-5874 -5876 0
-5875 -5876 0
5877 5878 5879 5880 0
-5877 -5878 0
-5877 -5879 0
-5877 -5880 0
-5878 -5879 0
-5878 -5880 0
-5879 -5880 0
5881 5882 5883 5884 0
-5881 -5882 0
-5881 -5883 0
-5881 -5884 0
-5882 -5883 0
-5882 -5884 0
-5883 -5884 0
5885 5886 5887 5888 0
-5885 -5886 0
-5885 -5887 0
-5885 -5888 0
-5886 -5887 0
-5886 -5888 0
-5887 -5888 0
5889 5890 5891 5892 0
-5889 -5890 0
-5889 -5891 0
-5889 -5892 0
-5890 -5891 0
-5890 -5892 0
-5891 -5892 0
5893 5894 5895 5896 0
-5893 -5894 0
-5893 -5895 0
-5893 -5896 0
-5894 -5895 0
-5894 -5896 0
-5895 -5896 0
5897 5898 5899 5900 0
-5897 -5898 0
-5897 -5899 0
-5897 -5900 0
-5898 -5899 0
-5898 -5900 0
-5899 -5900 0
5901 5902 5903 5904 0
-5901 -5902 0
-5901 -5903 0
-5901 -5904 0
-5902 -5903 0
-5902 -5904 0
-5903 -5904 0
5905 5906 5907 5908 0
-5905 -5906 0
-5905 -5907 0
-5905 -5908 0
-5906 -5907 0
-5906 -5908 0
-5907 -5908 0
5909 5910 5911 5912 0
-5909 -5910 0
-5909 -5911 0
-5909 -5912 0
-5910 -5911 0
-5910 -5912 0
-5911 -5912 0
5913 5914 5915 5916 0
-5913 -5914 0
-5913 -5915 0
-5913 -5916 0
-5914 -5915 0
-5914 -5916 0
-5915 -5916 0
5917 5918 5919 5920 0
-5917 -5918 0
-5917 -5919 0
-5917 -5920 0
-5918 -5919 0
-5918 -5920 0
-5919 -5920 0
5921 5922 5923 5924 0
-5921 -5922 0
-5921 -5923 0
-5921 -5924 0
-5922 -5923 0
-5922 -5924 0
-5923 -5924 0
5925 5926 5927 5928 0
-5925 -5926 0
-5925 -5927 0
-5925 -5928 0
-5926 -5927 0
-5926 -5928 0
-5927 -5928 0
5929 5930 5931 5932 0
-5929 -5930 0
-5929 -5931 0
-5929 -5932 0
-5930 -5931 0
-5930 -5932 0
-5931 -5932 0
5933 5934 5935 5936 0
-5933 -5934 0
-5933 -5935 0
-5933 -5936 0
-5934 -5935 0
-5934 -5936 0
-5935 -5936 0
5937 5938 5939 5940 0
-5937 -5938 0
-5937 -5939 0
-5937 -5940 0
-5938 -5939 0
-5938 -5940 0
-5939 -5940 0
5941 5942 5943 5944 0
-5941 -5942 0
-5941 -5943 0
-5941 -5944 0
-5942 -5943 0
-5942 -5944 0
-5943 -5944 0
5945 5946 5947 5948 0
-5945 -5946 0
-5945 -5947 0
-5945 -5948 0
-5946 -5947 0
-5946 -5948 0
-5947 -5948 0
5949 5950 5951 5952 0
-5949 -5950 0
-5949 -5951 0
-5949 -5952 0
-5950 -5951 0
-5950 -5952 0
-5951 -5952 0
5953 5954 5955 5956 0
-5953 -5954 0
-5953 -5955 0
-5953 -5956 0
-5954 -5955 0
-5954 -5956 0
-5955 -5956 0
5957 5958 5959 5960 0
-5957 -5958 0
-5957 -5959 0
-5957 -5960 0
-5958 -5959 0
-5958 -5960 0
-5959 -5960 0
5961 5962 5963 5964 0
-5961 -5962 0
-5961 -5963 0
-5961 -5964 0
-5962 -5963 0
-5962 -5964 0
-5963 -5964 0
5965 5966 5967 5968 0
-5965 -5966 0
-5965 -5967 0
-5965 -5968 0
-5966 -5967 0
-5966 -5968 0
-5967 -5968 0
5969 5970 5971 5972 0
-5969 -5970 0
-5969 -5971 0
-5969 -5972 0
-5970 -5971 0
-5970 -5972 0
-5971 -5972 0
5973 5974 5975 5976 0
-5973 -5974 0
-5973 -5975 0
-5973 -5976 0
-5974 -5975 0
-5974 -5976 0
-5975 -5976 0
5977 5978 5979 5980 0
-5977 -5978 0
-5977 -5979 0
-5977 -5980 0
-5978 -5979 0
-5978 -5980 0
-5979 -5980 0
5981 5982 5983 5984 0
-5981 -5982 0
-5981 -5983 0
-5981 -5984 0
-5982 -5983 0
-5982 -5984 0
-5983 -5984 0
5985 5986 5987 5988 0
-5985 -5986 0
-5985 -5987 0
-5985 -5988 0
-5986 -5987 0
-5986 -5988 0
-5987 -5988 0
5989 5990 5991 5992 0
-5989 -5990 0
-5989 -5991 0
-5989 -5992 0
-5990 -5991 0
-5990 -5992 0
-5991 -5992 0
5993 5994 5995 5996 0
-5993 -5994 0
-5993 -5995 0
-5993 -5996 0
-5994 -5995 0
-5994 -5996 0
-5995 -5996 0
5997 5998 5999 6000 0
-5997 -5998 0
-5997 -5999 0
-5997 -6000 0
-5998 -5999 0
-5998 -6000 0
-5999 -6000 0
6001 6002 6003 6004 0
-6001 -6002 0
-6001 -6003 0
-6001 -6004 0
-6002 -6003 0
-6002 -6004 0
-6003 -6004 0
6005 6006 6007 6008 0
-6005 -6006 0
-6005 -6007 0
-6005 -6008 0
-6006 -6007 0
-6006 -6008 0
-6007 -6008 0
6009 6010 6011 6012 0
-6009 -6010 0
-6009 -6011 0
-6009 -6012 0
-6010 -6011 0
-6010 -6012 0
-6011 -6012 0
6013 6014 6015 6016 0
-6013 -6014 0
-6013 -6015 0
-6013 -6016 0
-6014 -6015 0
-6014 -6016 0
-6015 -6016 0
6017 6018 6019 6020 0
-6017 -6018 0
-6017 -6019 0
-6017 -6020 0
-6018 -6019 0
-6018 -6020 0
-6019 -6020 0
6021 6022 6023 6024 0
-6021 -6022 0
-6021 -6023 0
-6021 -6024 0
-6022 -6023 0
-6022 -6024 0
-6023 -6024 0
6025 6026 6027 6028 0
-6025 -6026 0
-6025 -6027 0
-6025 -6028 0
-6026 -6027 0
-6026 -6028 0
-6027 -6028 0
6029 6030 6031 6032 0
-6029 -6030 0
-6029 -6031 0
-6029 -6032 0
-6030 -6031 0
-6030 -6032 0
-6031 -6032 0
6033 6034 6035 6036 0
-6033 -6034 0
-6033 -6035 0
-6033 -6036 0
-6034 -6035 0
-6034 -6036 0
-6035 -6036 0
6037 6038 6039 6040 0
-6037 -6038 0
-6037 -6039 0
-6037 -6040 0
-6038 -6039 0
-6038 -6040 0
-6039 -6040 0
6041 6042 6043 6044 0
-6041 -6042 0
-6041 -6043 0
-6041 -6044 0
-6042 -6043 0
-6042 -6044 0
-6043 -6044 0
6045 6046 6047 6048 0
-6045 -6046 0
-6045 -6047 0
-6045 -6048 0
-6046 -6047 0
-6046 -6048 0
-6047 -6048 0
6049 6050 6051 6052 0
-6049 -6050 0
-6049 -6051 0
-6049 -6052 0
-6050 -6051 0
-6050 -6052 0
-6051 -6052 0
6053 6054 6055 6056 0
-6053 -6054 0
-6053 -6055 0
-6053 -6056 0
-6054 -6055 0
-6054 -6056 0
-6055 -6056 0
6057 6058 6059 6060 0
-6057 -6058 0
-6057 -6059 0
-6057 -6060 0
-6058 -6059 0
-6058 -6060 0
-6059 -6060 0
6061 6062 6063 6064 0
-6061 -6062 0
-6061 -6063 0
-6061 -6064 0
-6062 -6063 0
-6062 -6064 0
-6063 -6064 0
6065 6066 6067 6068 0
-6065 -6066 0
-6065 -6067 0
-6065 -6068 0
-6066 -6067 0
-6066 -6068 0
-6067 -6068 0
6069 6070 6071 6072 0
-6069 -6070 0
-6069 -6071 0
-6069 -6072 0
-6070 -6071 0
-6070 -6072 0
-6071 -6072 0
6073 6074 6075 6076 0
-6073 -6074 0
-6073 -6075 0
-6073 -6076 0
-6074 -6075 0
-6074 -6076 0
-6075 -6076 0
6077 6078 6079 6080 0
-6077 -6078 0
-6077 -6079 0
-6077 -6080 0
-6078 -6079 0
-6078 -6080 0
-6079 -6080 0
6081 6082 6083 6084 0
-6081 -6082 0
-6081 -6083 0
-6081 -6084 0
-6082 -6083 0
-6082 -6084 0
-6083 -6084 0
6085 6086 6087 6088 0
-6085 -6086 0
-6085 -6087 0
-6085 -6088 0
-6086 -6087 0
-6086 -6088 0
-6087 -6088 0
6089 6090 6091 6092 0
-6089 -6090 0
-6089 -6091 0
-6089 -6092 0
-6090 -6091 0
-6090 -6092 0
-6091 -6092 0
6093 6094 6095 6096 0
-6093 -6094 0
-6093 -6095 0
-6093 -6096 0
-6094 -6095 0
-6094 -6096 0
-6095 -6096 0
6097 6098 6099 6100 0
-6097 -6098 0
-6097 -6099 0
-6097 -6100 0
-6098 -6099 0
-6098 -6100 0
-6099 -6100 0
6101 6102 6103 6104 0
-6101 -6102 0
-6101 -6103 0
-6101 -6104 0
-6102 -6103 0
-6102 -6104 0
-6103 -6104 0
6105 6106 6107 6108 0
-6105 -6106 0
-6105 -6107 0
-6105 -6108 0
-6106 -6107 0
-6106 -6108 0
-6107 -6108 0
6109 6110 6111 6112 0
-6109 -6110 0
-6109 -6111 0
-6109 -6112 0
-6110 -6111 0
-6110 -6112 0
-6111 -6112 0
6113 6114 6115 6116 0
-6113 -6114 0
-6113 -6115 0
-6113 -6116 0
-6114 -6115 0
-6114 -6116 0
-6115 -6116 0
6117 6118 6119 6120 0
-6117 -6118 0
-6117 -6119 0
-6117 -6120 0
-6118 -6119 0
-6118 -6120 0
-6119 -6120 0
6121 6122 6123 6124 0
-6121 -6122 0
-6121 -6123 0
-6121 -6124 0
-6122 -6123 0
-6122 -6124 0
-6123 -6124 0
6125 6126 6127 6128 0
-6125 -6126 0
-6125 -6127 0
-6125 -6128 0
-6126 -6127 0
-6126 -6128 0
-6127 -6128 0
6129 6130 6131 6132 0
-6129 -6130 0
-6129 -6131 0
-6129 -6132 0
-6130 -6131 0
-6130 -6132 0
-6131 -6132 0
6133 6134 6135 6136 0
-6133 -6134 0
-6133 -6135 0
-6133 -6136 0
-6134 -6135 0
-6134 -6136 0
-6135 -6136 0
6137 6138 6139 6140 0
-6137 -6138 0
-6137 -6139 0
-6137 -6140 0
-6138 -6139 0
-6138 -6140 0
-6139 -6140 0
6141 6142 6143 6144 0
-6141 -6142 0
-6141 -6143 0
-6141 -6144 0
-6142 -6143 0
-6142 -6144 0
-6143 -6144 0
6145 6146 6147 6148 0
-6145 -6146 0
-6145 -6147 0
-6145 -6148 0
-6146 -6147 0
-6146 -6148 0
-6147 -6148 0
6149 6150 6151 6152 0
-6149 -6150 0
-6149 -6151 0
-6149 -6152 0
-6150 -6151 0
-6150 -6152 0
-6151 -6152 0
6153 6154 6155 6156 0
-6153 -6154 0
-6153 -6155 0
-6153 -6156 0
-6154 -6155 0
-6154 -6156 0
-6155 -6156 0
6157 6158 6159 6160 0
-6157 -6158 0
-6157 -6159 0
-6157 -6160 0
-6158 -6159 0
-6158 -6160 0
-6159 -6160 0
-1 -4885 0
-2 -4886 0
-3 -4887 0
-4 -4888 0
-1 -1829 0
-2 -1830 0
-3 -1831 0
-4 -1832 0
-1 -425 0
-2 -426 0
-3 -427 0
-4 -428 0
-1 -1377 0
-2 -1378 0
-3 -1379 0
-4 -1380 0
-1 -3069 0
-2 -3070 0
-3 -3071 0
-4 -3072 0
-5 -9 0
-6 -10 0
-7 -11 0
-8 -12 0
-5 -405 0
-6 -406 0
-7 -407 0
-8 -408 0
-5 -425 0
-6 -426 0
-7 -427 0
-8 -428 0
-5 -2889 0
-6 -2890 0
-7 -2891 0
-8 -2892 0
-5 -1005 0
-6 -1006 0
-7 -1007 0
-8 -1008 0
-9 -3097 0
-10 -3098 0
-11 -3099 0
-12 -3100 0
-9 -297 0
-10 -298 0
-11 -299 0
-12 -300 0
-9 -425 0
-10 -426 0
-11 -427 0
-12 -428 0
-9 -453 0
-10 -454 0
-11 -455 0
-12 -456 0
-9 -1881 0
-10 -1882 0
-11 -1883 0
-12 -1884 0
-9 -2905 0
-10 -2906 0
-11 -2907 0
-12 -2908 0
-9 -2929 0
-10 -2930 0
-11 -2931 0
-12 -2932 0
-13 -3845 0
-14 -3846 0
-15 -3847 0
-16 -3848 0
-13 -905 0
-14 -906 0
-15 -907 0
-16 -908 0
-13 -17 0
-14 -18 0
-15 -19 0
-16 -20 0
-13 -1813 0
-14 -1814 0
-15 -1815 0
-16 -1816 0
-13 -1177 0
-14 -1178 0
-15 -1179 0
-16 -1180 0
-13 -33 0
-14 -34 0
-15 -35 0
-16 -36 0
-13 -425 0
-14 -426 0
-15 -427 0
-16 -428 0
-13 -2857 0
-14 -2858 0
-15 -2859 0
-16 -2860 0
-13 -329 0
-14 -330 0
-15 -331 0
-16 -332 0
-13 -5705 0
-14 -5706 0
-15 -5707 0
-16 -5708 0
-13 -1137 0
-14 -1138 0
-15 -1139 0
-16 -1140 0
-13 -985 0
-14 -986 0
-15 -987 0
-16 -988 0
-13 -881 0
-14 -882 0
-15 -883 0
-16 -884 0
-13 -6005 0
-14 -6006 0
-15 -6007 0
-16 -6008 0
-17 -21 0
-18 -22 0
-19 -23 0
-20 -24 0
-17 -37 0
-18 -38 0
-19 -39 0
-20 -40 0
-17 -4141 0
-18 -4142 0
-19 -4143 0
-20 -4144 0
-17 -1149 0
-18 -1150 0
-19 -1151 0
-20 -1152 0
-17 -129 0
-18 -130 0
-19 -131 0
-20 -132 0
-17 -1669 0
-18 -1670 0
-19 -1671 0
-20 -1672 0
-17 -125 0
-18 -126 0
-19 -127 0
-20 -128 0
-17 -2201 0
-18 -2202 0
-19 -2203 0
-20 -2204 0
-17 -669 0
-18 -670 0
-19 -671 0
-20 -672 0
-17 -1185 0
-18 -1186 0
-19 -1187 0
-20 -1188 0
-17 -1693 0
-18 -1694 0
-19 -1695 0
-20 -1696 0
-17 -2237 0
-18 -2238 0
-19 -2239 0
-20 -2240 0
-17 -721 0
-18 -722 0
-19 -723 0
-20 -724 0
-17 -3861 0
-18 -3862 0
-19 -3863 0
-20 -3864 0
-17 -5941 0
-18 -5942 0
-19 -5943 0
-20 -5944 0
-17 -2893 0
-18 -2894 0
-19 -2895 0
-20 -2896 0
-17 -345 0
-18 -346 0
-19 -347 0
-20 -348 0
-17 -905 0
-18 -906 0
-19 -907 0
-20 -908 0
-17 -925 0
-18 -926 0
-19 -927 0
-20 -928 0
-17 -417 0
-18 -418 0
-19 -419 0
-20 -420 0
-17 -4009 0
-18 -4010 0
-19 -4011 0
-20 -4012 0
-17 -453 0
-18 -454 0
-19 -455 0
-20 -456 0
-21 -141 0
-22 -142 0
-23 -143 0
-24 -144 0
-21 -913 0
-22 -914 0
-23 -915 0
-24 -916 0
-21 -25 0
-22 -26 0
-23 -27 0
-24 -28 0
-21 -1177 0
-22 -1178 0
-23 -1179 0
-24 -1180 0
-21 -933 0
-22 -934 0
-23 -935 0
-24 -936 0
-21 -425 0
-22 -426 0
-23 -427 0
-24 -428 0
-21 -1701 0
-22 -1702 0
-23 -1703 0
-24 -1704 0
-21 -4013 0
-22 -4014 0
-23 -4015 0
-24 -4016 0
-21 -1845 0
-22 -1846 0
-23 -1847 0
-24 -1848 0
-21 -825 0
-22 -826 0
-23 -827 0
-24 -828 0
-21 -2245 0
-22 -2246 0
-23 -2247 0
-24 -2248 0
-21 -461 0
-22 -462 0
-23 -463 0
-24 -464 0
-21 -725 0
-22 -726 0
-23 -727 0
-24 -728 0
-21 -101 0
-22 -102 0
-23 -103 0
-24 -104 0
-21 -1137 0
-22 -1138 0
-23 -1139 0
-24 -1140 0
-21 -6013 0
-22 -6014 0
-23 -6015 0
-24 -6016 0
-25 -145 0
-26 -146 0
-27 -147 0
-28 -148 0
-25 -1149 0
-26 -1150 0
-27 -1151 0
-28 -1152 0
-25 -1185 0
-26 -1186 0
-27 -1187 0
-28 -1188 0
-25 -933 0
-26 -934 0
-27 -935 0
-28 -936 0
-25 -945 0
-26 -946 0
-27 -947 0
-28 -948 0
-25 -2237 0
-26 -2238 0
-27 -2239 0
-28 -2240 0
-25 -453 0
-26 -454 0
-27 -455 0
-28 -456 0
-25 -837 0
-26 -838 0
-27 -839 0
-28 -840 0
-25 -4041 0
-26 -4042 0
-27 -4043 0
-28 -4044 0
-25 -109 0
-26 -110 0
-27 -111 0
-28 -112 0
-25 -125 0
-26 -126 0
-27 -127 0
-28 -128 0
-29 -129 0
-30 -130 0
-31 -131 0
-32 -132 0
-29 -513 0
-30 -514 0
-31 -515 0
-32 -516 0
-29 -1545 0
-30 -1546 0
-31 -1547 0
-32 -1548 0
-29 -529 0
-30 -530 0
-31 -531 0
-32 -532 0
-29 -157 0
-30 -158 0
-31 -159 0
-32 -160 0
-29 -2337 0
-30 -2338 0
-31 -2339 0
-32 -2340 0
-29 -1065 0
-30 -1066 0
-31 -1067 0
-32 -1068 0
-29 -301 0
-30 -302 0
-31 -303 0
-32 -304 0
-29 -1129 0
-30 -1130 0
-31 -1131 0
-32 -1132 0
-33 -3589 0
-34 -3590 0
-35 -3591 0
-36 -3592 0
-33 -1049 0
-34 -1050 0
-35 -1051 0
-36 -1052 0
-33 -541 0
-34 -542 0
-35 -543 0
-36 -544 0
-33 -3097 0
-34 -3098 0
-35 -3099 0
-36 -3100 0
-33 -37 0
-34 -38 0
-35 -39 0
-36 -40 0
-33 -1065 0
-34 -1066 0
-35 -1067 0
-36 -1068 0
-33 -1089 0
-34 -1090 0
-35 -1091 0
-36 -1092 0
-33 -2625 0
-34 -2626 0
-35 -2627 0
-36 -2628 0
-33 -4209 0
-34 -4210 0
-35 -4211 0
-36 -4212 0
-33 -165 0
-34 -166 0
-35 -167 0
-36 -168 0
-33 -729 0
-34 -730 0
-35 -731 0
-36 -732 0
-33 -4329 0
-34 -4330 0
-35 -4331 0
-36 -4332 0
-33 -757 0
-34 -758 0
-35 -759 0
-36 -760 0
-33 -1277 0
-34 -1278 0
-35 -1279 0
-36 -1280 0
-33 -1305 0
-34 -1306 0
-35 -1307 0
-36 -1308 0
-33 -301 0
-34 -302 0
-35 -303 0
-36 -304 0
-33 -1881 0
-34 -1882 0
-35 -1883 0
-36 -1884 0
-33 -5497 0
-34 -5498 0
-35 -5499 0
-36 -5500 0
-33 -425 0
-34 -426 0
-35 -427 0
-36 -428 0
-33 -4025 0
-34 -4026 0
-35 -4027 0
-36 -4028 0
-33 -1517 0
-34 -1518 0
-35 -1519 0
-36 -1520 0
-37 -4233 0
-38 -4234 0
-39 -4235 0
-40 -4236 0
-37 -5517 0
-38 -5518 0
-39 -5519 0
-40 -5520 0
-37 -1937 0
-38 -1938 0
-39 -1939 0
-40 -1940 0
-37 -2973 0
-38 -2974 0
-39 -2975 0
-40 -2976 0
-37 -1065 0
-38 -1066 0
-39 -1067 0
-40 -1068 0
-37 -2089 0
-38 -2090 0
-39 -2091 0
-40 -2092 0
-37 -561 0
-38 -562 0
-39 -563 0
-40 -564 0
-37 -3137 0
-38 -3138 0
-39 -3139 0
-40 -3140 0
-37 -453 0
-38 -454 0
-39 -455 0
-40 -456 0
-37 -1093 0
-38 -1094 0
-39 -1095 0
-40 -1096 0
-37 -5493 0
-38 -5494 0
-39 -5495 0
-40 -5496 0
-37 -2421 0
-38 -2422 0
-39 -2423 0
-40 -2424 0
-41 -1285 0
-42 -1286 0
-43 -1287 0
-44 -1288 0
-41 -2205 0
-42 -2206 0
-43 -2207 0
-44 -2208 0
-41 -425 0
-42 -426 0
-43 -427 0
-44 -428 0
-41 -45 0
-42 -46 0
-43 -47 0
-44 -48 0
-41 -185 0
-42 -186 0
-43 -187 0
-44 -188 0
-41 -213 0
-42 -214 0
-43 -215 0
-44 -216 0
-41 -217 0
-42 -218 0
-43 -219 0
-44 -220 0
-41 -3297 0
-42 -3298 0
-43 -3299 0
-44 -3300 0
-41 -4321 0
-42 -4322 0
-43 -4323 0
-44 -4324 0
-41 -1645 0
-42 -1646 0
-43 -1647 0
-44 -1648 0
-41 -113 0
-42 -114 0
-43 -115 0
-44 -116 0
-41 -1269 0
-42 -1270 0
-43 -1271 0
-44 -1272 0
-45 -4353 0
-46 -4354 0
-47 -4355 0
-48 -4356 0
-45 -389 0
-46 -390 0
-47 -391 0
-48 -392 0
-45 -1285 0
-46 -1286 0
-47 -1287 0
-48 -1288 0
-45 -1377 0
-46 -1378 0
-47 -1379 0
-48 -1380 0
-45 -5141 0
-46 -5142 0
-47 -5143 0
-48 -5144 0
-45 -1305 0
-46 -1306 0
-47 -1307 0
-48 -1308 0
-45 -2349 0
-46 -2350 0
-47 -2351 0
-48 -2352 0
-45 -57 0
-46 -58 0
-47 -59 0
-48 -60 0
-45 -2233 0
-46 -2234 0
-47 -2235 0
-48 -2236 0
-45 -453 0
-46 -454 0
-47 -455 0
-48 -456 0
-45 -973 0
-46 -974 0
-47 -975 0
-48 -976 0
-45 -225 0
-46 -226 0
-47 -227 0
-48 -228 0
-45 -117 0
-46 -118 0
-47 -119 0
-48 -120 0
-45 -1653 0
-46 -1654 0
-47 -1655 0
-48 -1656 0
-45 -6013 0
-46 -6014 0
-47 -6015 0
-48 -6016 0
-49 -5773 0
-50 -5774 0
-51 -5775 0
-52 -5776 0
-49 -4885 0
-50 -4886 0
-51 -4887 0
-52 -4888 0
-49 -413 0
-50 -414 0
-51 -415 0
-52 -416 0
-49 -1829 0
-50 -1830 0
-51 -1831 0
-52 -1832 0
-49 -425 0
-50 -426 0
-51 -427 0
-52 -428 0
-49 -3369 0
-50 -3370 0
-51 -3371 0
-52 -3372 0
-49 -1341 0
-50 -1342 0
-51 -1343 0
-52 -1344 0
-53 -5901 0
-54 -5902 0
-55 -5903 0
-56 -5904 0
-53 -4757 0
-54 -4758 0
-55 -4759 0
-56 -4760 0
-53 -421 0
-54 -422 0
-55 -423 0
-56 -424 0
-53 -425 0
-54 -426 0
-55 -427 0
-56 -428 0
-53 -1321 0
-54 -1322 0
-55 -1323 0
-56 -1324 0
-53 -57 0
-54 -58 0
-55 -59 0
-56 -60 0
-53 -61 0
-54 -62 0
-55 -63 0
-56 -64 0
-53 -1341 0
-54 -1342 0
-55 -1343 0
-56 -1344 0
-53 -2889 0
-54 -2890 0
-55 -2891 0
-56 -2892 0
-53 -4429 0
-54 -4430 0
-55 -4431 0
-56 -4432 0
-53 -993 0
-54 -994 0
-55 -995 0
-56 -996 0
-53 -1005 0
-54 -1006 0
-55 -1007 0
-56 -1008 0
-53 -4593 0
-54 -4594 0
-55 -4595 0
-56 -4596 0
-53 -885 0
-54 -886 0
-55 -887 0
-56 -888 0
-57 -4633 0
-58 -4634 0
-59 -4635 0
-60 -4636 0
-57 -65 0
-58 -66 0
-59 -67 0
-60 -68 0
-57 -1645 0
-58 -1646 0
-59 -1647 0
-60 -1648 0
-57 -1713 0
-58 -1714 0
-59 -1715 0
-60 -1716 0
-57 -185 0
-58 -186 0
-59 -187 0
-60 -188 0
-57 -277 0
-58 -278 0
-59 -279 0
-60 -280 0
-57 -1325 0
-58 -1326 0
-59 -1327 0
-60 -1328 0
-57 -2869 0
-58 -2870 0
-59 -2871 0
-60 -2872 0
-57 -1345 0
-58 -1346 0
-59 -1347 0
-60 -1348 0
-57 -3393 0
-58 -3394 0
-59 -3395 0
-60 -3396 0
-57 -2893 0
-58 -2894 0
-59 -2895 0
-60 -2896 0
-57 -4433 0
-58 -4434 0
-59 -4435 0
-60 -4436 0
-57 -2409 0
-58 -2410 0
-59 -2411 0
-60 -2412 0
-57 -1389 0
-58 -1390 0
-59 -1391 0
-60 -1392 0
-57 -425 0
-58 -426 0
-59 -427 0
-60 -428 0
-57 -429 0
-58 -430 0
-59 -431 0
-60 -432 0
-57 -965 0
-58 -966 0
-59 -967 0
-60 -968 0
-57 -6085 0
-58 -6086 0
-59 -6087 0
-60 -6088 0
-57 -481 0
-58 -482 0
-59 -483 0
-60 -484 0
-61 -65 0
-62 -66 0
-63 -67 0
-64 -68 0
-61 -581 0
-62 -582 0
-63 -583 0
-64 -584 0
-61 -609 0
-62 -610 0
-63 -611 0
-64 -612 0
-61 -2673 0
-62 -2674 0
-63 -2675 0
-64 -2676 0
-61 -4745 0
-62 -4746 0
-63 -4747 0
-64 -4748 0
-61 -197 0
-62 -198 0
-63 -199 0
-64 -200 0
-61 -233 0
-62 -234 0
-63 -235 0
-64 -236 0
-61 -1341 0
-62 -1342 0
-63 -1343 0
-64 -1344 0
-61 -1361 0
-62 -1362 0
-63 -1363 0
-64 -1364 0
-61 -3409 0
-62 -3410 0
-63 -3411 0
-64 -3412 0
-61 -2905 0
-62 -2906 0
-63 -2907 0
-64 -2908 0
-61 -3413 0
-62 -3414 0
-63 -3415 0
-64 -3416 0
-61 -4449 0
-62 -4450 0
-63 -4451 0
-64 -4452 0
-61 -2929 0
-62 -2930 0
-63 -2931 0
-64 -2932 0
-61 -2437 0
-62 -2438 0
-63 -2439 0
-64 -2440 0
-61 -913 0
-62 -914 0
-63 -915 0
-64 -916 0
-61 -3513 0
-62 -3514 0
-63 -3515 0
-64 -3516 0
-61 -449 0
-62 -450 0
-63 -451 0
-64 -452 0
-61 -453 0
-62 -454 0
-63 -455 0
-64 -456 0
-61 -969 0
-62 -970 0
-63 -971 0
-64 -972 0
-61 -2525 0
-62 -2526 0
-63 -2527 0
-64 -2528 0
-61 -4601 0
-62 -4602 0
-63 -4603 0
-64 -4604 0
-65 -2309 0
-66 -2310 0
-67 -2311 0
-68 -2312 0
-65 -1033 0
-66 -1034 0
-67 -1035 0
-68 -1036 0
-65 -2441 0
-66 -2442 0
-67 -2443 0
-68 -2444 0
-65 -1345 0
-66 -1346 0
-67 -1347 0
-68 -1348 0
-65 -453 0
-66 -454 0
-67 -455 0
-68 -456 0
-65 -457 0
-66 -458 0
-67 -459 0
-68 -460 0
-65 -5585 0
-66 -5586 0
-67 -5587 0
-68 -5588 0
-65 -1365 0
-66 -1366 0
-67 -1367 0
-68 -1368 0
-65 -3417 0
-66 -3418 0
-67 -3419 0
-68 -3420 0
-65 -1653 0
-66 -1654 0
-67 -1655 0
-68 -1656 0
-69 -1541 0
-70 -1542 0
-71 -1543 0
-72 -1544 0
-69 -521 0
-70 -522 0
-71 -523 0
-72 -524 0
-69 -1557 0
-70 -1558 0
-71 -1559 0
-72 -1560 0
-69 -417 0
-70 -418 0
-71 -419 0
-72 -420 0
-69 -425 0
-70 -426 0
-71 -427 0
-72 -428 0
-69 -309 0
-70 -310 0
-71 -311 0
-72 -312 0
-69 -73 0
-70 -74 0
-71 -75 0
-72 -76 0
-69 -77 0
-70 -78 0
-71 -79 0
-72 -80 0
-69 -2633 0
-70 -2634 0
-71 -2635 0
-72 -2636 0
-69 -5865 0
-70 -5866 0
-71 -5867 0
-72 -5868 0
-69 -1773 0
-70 -1774 0
-71 -1775 0
-72 -1776 0
-69 -4853 0
-70 -4854 0
-71 -4855 0
-72 -4856 0
-73 -1545 0
-74 -1546 0
-75 -1547 0
-76 -1548 0
-73 -1569 0
-74 -1570 0
-75 -1571 0
-76 -1572 0
-73 -425 0
-74 -426 0
-75 -427 0
-76 -428 0
-73 -437 0
-74 -438 0
-75 -439 0
-76 -440 0
-73 -4277 0
-74 -4278 0
-75 -4279 0
-76 -4280 0
-73 -4297 0
-74 -4298 0
-75 -4299 0
-76 -4300 0
-73 -81 0
-74 -82 0
-75 -83 0
-76 -84 0
-77 -1805 0
-78 -1806 0
-79 -1807 0
-80 -1808 0
-77 -1557 0
-78 -1558 0
-79 -1559 0
-80 -1560 0
-77 -537 0
-78 -538 0
-79 -539 0
-80 -540 0
-77 -2709 0
-78 -2710 0
-79 -2711 0
-80 -2712 0
-77 -1193 0
-78 -1194 0
-79 -1195 0
-80 -1196 0
-77 -1581 0
-78 -1582 0
-79 -1583 0
-80 -1584 0
-77 -1837 0
-78 -1838 0
-79 -1839 0
-80 -1840 0
-77 -445 0
-78 -446 0
-79 -447 0
-80 -448 0
-77 -453 0
-78 -454 0
-79 -455 0
-80 -456 0
-77 -3017 0
-78 -3018 0
-79 -3019 0
-80 -3020 0
-77 -81 0
-78 -82 0
-79 -83 0
-80 -84 0
-77 -2641 0
-78 -2642 0
-79 -2643 0
-80 -2644 0
-77 -3053 0
-78 -3054 0
-79 -3055 0
-80 -3056 0
-77 -1785 0
-78 -1786 0
-79 -1787 0
-80 -1788 0
-81 -545 0
-82 -546 0
-83 -547 0
-84 -548 0
-81 -1569 0
-82 -1570 0
-83 -1571 0
-84 -1572 0
-81 -1585 0
-82 -1586 0
-83 -1587 0
-84 -1588 0
-81 -453 0
-82 -454 0
-83 -455 0
-84 -456 0
-81 -461 0
-82 -462 0
-83 -463 0
-84 -464 0
-81 -5865 0
-82 -5866 0
-83 -5867 0
-84 -5868 0
-81 -1773 0
-82 -1774 0
-83 -1775 0
-84 -1776 0
-81 -2417 0
-82 -2418 0
-83 -2419 0
-84 -2420 0
-85 -97 0
-86 -98 0
-87 -99 0
-88 -100 0
-85 -905 0
-86 -906 0
-87 -907 0
-88 -908 0
-85 -3093 0
-86 -3094 0
-87 -3095 0
-88 -3096 0
-85 -761 0
-86 -762 0
-87 -763 0
-88 -764 0
-89 -905 0
-90 -906 0
-91 -907 0
-92 -908 0
-89 -789 0
-90 -790 0
-91 -791 0
-92 -792 0
-89 -281 0
-90 -282 0
-91 -283 0
-92 -284 0
-89 -3093 0
-90 -3094 0
-91 -3095 0
-92 -3096 0
-89 -933 0
-90 -934 0
-91 -935 0
-92 -936 0
-89 -1857 0
-90 -1858 0
-91 -1859 0
-92 -1860 0
-89 -3145 0
-90 -3146 0
-91 -3147 0
-92 -3148 0
-89 -341 0
-90 -342 0
-91 -343 0
-92 -344 0
-89 -6109 0
-90 -6110 0
-91 -6111 0
-92 -6112 0
-89 -1253 0
-90 -1254 0
-91 -1255 0
-92 -1256 0
-89 -105 0
-90 -106 0
-91 -107 0
-92 -108 0
-89 -2669 0
-90 -2670 0
-91 -2671 0
-92 -2672 0
-89 -3697 0
-90 -3698 0
-91 -3699 0
-92 -3700 0
-89 -1653 0
-90 -1654 0
-91 -1655 0
-92 -1656 0
-93 -285 0
-94 -286 0
-95 -287 0
-96 -288 0
-93 -933 0
-94 -934 0
-95 -935 0
-96 -936 0
-93 -1857 0
-94 -1858 0
-95 -1859 0
-96 -1860 0
-93 -3145 0
-94 -3146 0
-95 -3147 0
-96 -3148 0
-93 -353 0
-94 -354 0
-95 -355 0
-96 -356 0
-97 -3329 0
-98 -3330 0
-99 -3331 0
-100 -3332 0
-97 -137 0
-98 -138 0
-99 -139 0
-100 -140 0
-97 -905 0
-98 -906 0
-99 -907 0
-100 -908 0
-97 -2577 0
-98 -2578 0
-99 -2579 0
-100 -2580 0
-97 -1065 0
-98 -1066 0
-99 -1067 0
-100 -1068 0
-97 -4009 0
-98 -4010 0
-99 -4011 0
-100 -4012 0
-97 -4141 0
-98 -4142 0
-99 -4143 0
-100 -4144 0
-97 -2113 0
-98 -2114 0
-99 -2115 0
-100 -2116 0
-101 -1053 0
-102 -1054 0
-103 -1055 0
-104 -1056 0
-101 -2093 0
-102 -2094 0
-103 -2095 0
-104 -2096 0
-101 -4145 0
-102 -4146 0
-103 -4147 0
-104 -4148 0
-101 -1081 0
-102 -1082 0
-103 -1083 0
-104 -1084 0
-101 -109 0
-102 -110 0
-103 -111 0
-104 -112 0
-101 -121 0
-102 -122 0
-103 -123 0
-104 -124 0
-101 -649 0
-102 -650 0
-103 -651 0
-104 -652 0
-101 -681 0
-102 -682 0
-103 -683 0
-104 -684 0
-101 -1721 0
-102 -1722 0
-103 -1723 0
-104 -1724 0
-101 -1733 0
-102 -1734 0
-103 -1735 0
-104 -1736 0
-101 -5909 0
-102 -5910 0
-103 -5911 0
-104 -5912 0
-101 -309 0
-102 -310 0
-103 -311 0
-104 -312 0
-101 -1849 0
-102 -1850 0
-103 -1851 0
-104 -1852 0
-101 -369 0
-102 -370 0
-103 -371 0
-104 -372 0
-101 -6017 0
-102 -6018 0
-103 -6019 0
-104 -6020 0
-101 -425 0
-102 -426 0
-103 -427 0
-104 -428 0
-101 -5049 0
-102 -5050 0
-103 -5051 0
-104 -5052 0
-101 -4549 0
-102 -4550 0
-103 -4551 0
-104 -4552 0
-101 -2549 0
-102 -2550 0
-103 -2551 0
-104 -2552 0
-105 -1065 0
-106 -1066 0
-107 -1067 0
-108 -1068 0
-105 -2113 0
-106 -2114 0
-107 -2115 0
-108 -2116 0
-105 -1097 0
-106 -1098 0
-107 -1099 0
-108 -1100 0
-105 -3681 0
-106 -3682 0
-107 -3683 0
-108 -3684 0
-105 -109 0
-106 -110 0
-107 -111 0
-108 -112 0
-105 -3721 0
-106 -3722 0
-107 -3723 0
-108 -3724 0
-105 -1189 0
-106 -1190 0
-107 -1191 0
-108 -1192 0
-105 -1729 0
-106 -1730 0
-107 -1731 0
-108 -1732 0
-105 -3329 0
-106 -3330 0
-107 -3331 0
-108 -3332 0
-105 -3377 0
-106 -3378 0
-107 -3379 0
-108 -3380 0
-105 -317 0
-106 -318 0
-107 -319 0
-108 -320 0
-105 -837 0
-106 -838 0
-107 -839 0
-108 -840 0
-105 -1369 0
-106 -1370 0
-107 -1371 0
-108 -1372 0
-105 -2405 0
-106 -2406 0
-107 -2407 0
-108 -2408 0
-105 -4977 0
-106 -4978 0
-107 -4979 0
-108 -4980 0
-105 -2969 0
-106 -2970 0
-107 -2971 0
-108 -2972 0
-105 -933 0
-106 -934 0
-107 -935 0
-108 -936 0
-105 -449 0
-106 -450 0
-107 -451 0
-108 -452 0
-105 -4041 0
-106 -4042 0
-107 -4043 0
-108 -4044 0
-105 -4585 0
-106 -4586 0
-107 -4587 0
-108 -4588 0
-109 -3333 0
-110 -3334 0
-111 -3335 0
-112 -3336 0
-109 -5905 0
-110 -5906 0
-111 -5907 0
-112 -5908 0
-109 -2081 0
-110 -2082 0
-111 -2083 0
-112 -2084 0
-109 -5409 0
-110 -5410 0
-111 -5411 0
-112 -5412 0
-109 -937 0
-110 -938 0
-111 -939 0
-112 -940 0
-109 -1069 0
-110 -1070 0
-111 -1071 0
-112 -1072 0
-109 -1193 0
-110 -1194 0
-111 -1195 0
-112 -1196 0
-109 -453 0
-110 -454 0
-111 -455 0
-112 -456 0
-109 -1733 0
-110 -1734 0
-111 -1735 0
-112 -1736 0
-109 -1745 0
-110 -1746 0
-111 -1747 0
-112 -1748 0
-109 -1373 0
-110 -1374 0
-111 -1375 0
-112 -1376 0
-109 -2797 0
-110 -2798 0
-111 -2799 0
-112 -2800 0
-109 -4981 0
-110 -4982 0
-111 -4983 0
-112 -4984 0
-113 -769 0
-114 -770 0
-115 -771 0
-116 -772 0
-113 -261 0
-114 -262 0
-115 -263 0
-116 -264 0
-113 -4617 0
-114 -4618 0
-115 -4619 0
-116 -4620 0
-113 -1805 0
-114 -1806 0
-115 -1807 0
-116 -1808 0
-113 -4885 0
-114 -4886 0
-115 -4887 0
-116 -4888 0
-113 -1829 0
-114 -1830 0
-115 -1831 0
-116 -1832 0
-113 -425 0
-114 -426 0
-115 -427 0
-116 -428 0
-113 -3021 0
-114 -3022 0
-115 -3023 0
-116 -3024 0
-113 -341 0
-114 -342 0
-115 -343 0
-116 -344 0
-113 -117 0
-114 -118 0
-115 -119 0
-116 -120 0
-117 -265 0
-118 -266 0
-119 -267 0
-120 -268 0
-117 -797 0
-118 -798 0
-119 -799 0
-120 -800 0
-117 -1829 0
-118 -1830 0
-119 -1831 0
-120 -1832 0
-117 -4905 0
-118 -4906 0
-119 -4907 0
-120 -4908 0
-117 -441 0
-118 -442 0
-119 -443 0
-120 -444 0
-117 -1849 0
-118 -1850 0
-119 -1851 0
-120 -1852 0
-117 -453 0
-118 -454 0
-119 -455 0
-120 -456 0
-117 -2905 0
-118 -2906 0
-119 -2907 0
-120 -2908 0
-117 -3049 0
-118 -3050 0
-119 -3051 0
-120 -3052 0
-117 -2169 0
-118 -2170 0
-119 -2171 0
-120 -2172 0
-121 -2185 0
-122 -2186 0
-123 -2187 0
-124 -2188 0
-121 -1433 0
-122 -1434 0
-123 -1435 0
-124 -1436 0
-121 -161 0
-122 -162 0
-123 -163 0
-124 -164 0
-121 -2209 0
-122 -2210 0
-123 -2211 0
-124 -2212 0
-121 -4013 0
-122 -4014 0
-123 -4015 0
-124 -4016 0
-121 -1845 0
-122 -1846 0
-123 -1847 0
-124 -1848 0
-121 -825 0
-122 -826 0
-123 -827 0
-124 -828 0
-121 -5053 0
-122 -5054 0
-123 -5055 0
-124 -5056 0
-121 -2249 0
-122 -2250 0
-123 -2251 0
-124 -2252 0
-121 -345 0
-122 -346 0
-123 -347 0
-124 -348 0
-121 -605 0
-122 -606 0
-123 -607 0
-124 -608 0
-121 -481 0
-122 -482 0
-123 -483 0
-124 -484 0
-121 -1257 0
-122 -1258 0
-123 -1259 0
-124 -1260 0
-121 -753 0
-122 -754 0
-123 -755 0
-124 -756 0
-121 -373 0
-122 -374 0
-123 -375 0
-124 -376 0
-121 -1521 0
-122 -1522 0
-123 -1523 0
-124 -1524 0
-125 -133 0
-126 -134 0
-127 -135 0
-128 -136 0
-125 -1177 0
-126 -1178 0
-127 -1179 0
-128 -1180 0
-125 -425 0
-126 -426 0
-127 -427 0
-128 -428 0
-125 -2225 0
-126 -2226 0
-127 -2227 0
-128 -2228 0
-125 -4021 0
-126 -4022 0
-127 -4023 0
-128 -4024 0
-125 -1853 0
-126 -1854 0
-127 -1855 0
-128 -1856 0
-125 -5065 0
-126 -5066 0
-127 -5067 0
-128 -5068 0
-125 -461 0
-126 -462 0
-127 -463 0
-128 -464 0
-125 -2261 0
-126 -2262 0
-127 -2263 0
-128 -2264 0
-125 -3065 0
-126 -3066 0
-127 -3067 0
-128 -3068 0
-129 -133 0
-130 -134 0
-131 -135 0
-132 -136 0
-129 -661 0
-130 -662 0
-131 -663 0
-132 -664 0
-129 -1177 0
-130 -1178 0
-131 -1179 0
-132 -1180 0
-129 -1565 0
-130 -1566 0
-131 -1567 0
-132 -1568 0
-129 -425 0
-130 -426 0
-131 -427 0
-132 -428 0
-129 -4009 0
-130 -4010 0
-131 -4011 0
-132 -4012 0
-129 -1893 0
-130 -1894 0
-131 -1895 0
-132 -1896 0
-129 -1873 0
-130 -1874 0
-131 -1875 0
-132 -1876 0
-129 -997 0
-130 -998 0
-131 -999 0
-132 -1000 0
-133 -2629 0
-134 -2630 0
-135 -2631 0
-136 -2632 0
-133 -2201 0
-134 -2202 0
-135 -2203 0
-136 -2204 0
-133 -1185 0
-134 -1186 0
-135 -1187 0
-136 -1188 0
-133 -169 0
-134 -170 0
-135 -171 0
-136 -172 0
-133 -2237 0
-134 -2238 0
-135 -2239 0
-136 -2240 0
-133 -757 0
-134 -758 0
-135 -759 0
-136 -760 0
-133 -817 0
-134 -818 0
-135 -819 0
-136 -820 0
-133 -4929 0
-134 -4930 0
-135 -4931 0
-136 -4932 0
-133 -361 0
-134 -362 0
-135 -363 0
-136 -364 0
-133 -1909 0
-134 -1910 0
-135 -1911 0
-136 -1912 0
-133 -417 0
-134 -418 0
-135 -419 0
-136 -420 0
-133 -4029 0
-134 -4030 0
-135 -4031 0
-136 -4032 0
-133 -453 0
-134 -454 0
-135 -455 0
-136 -456 0
-133 -5077 0
-134 -5078 0
-135 -5079 0
-136 -5080 0
-133 -473 0
-134 -474 0
-135 -475 0
-136 -476 0
-133 -2017 0
-134 -2018 0
-135 -2019 0
-136 -2020 0
-133 -497 0
-134 -498 0
-135 -499 0
-136 -500 0
-137 -4233 0
-138 -4234 0
-139 -4235 0
-140 -4236 0
-137 -1065 0
-138 -1066 0
-139 -1067 0
-140 -1068 0
-137 -2089 0
-138 -2090 0
-139 -2091 0
-140 -2092 0
-137 -1221 0
-138 -1222 0
-139 -1223 0
-140 -1224 0
-141 -145 0
-142 -146 0
-143 -147 0
-144 -148 0
-141 -665 0
-142 -666 0
-143 -667 0
-144 -668 0
-141 -5137 0
-142 -5138 0
-143 -5139 0
-144 -5140 0
-141 -1573 0
-142 -1574 0
-143 -1575 0
-144 -1576 0
-141 -425 0
-142 -426 0
-143 -427 0
-144 -428 0
-141 -2613 0
-142 -2614 0
-143 -2615 0
-144 -2616 0
-141 -4149 0
-142 -4150 0
-143 -4151 0
-144 -4152 0
-141 -1881 0
-142 -1882 0
-143 -1883 0
-144 -1884 0
-141 -1245 0
-142 -1246 0
-143 -1247 0
-144 -1248 0
-141 -2009 0
-142 -2010 0
-143 -2011 0
-144 -2012 0
-141 -3049 0
-142 -3050 0
-143 -3051 0
-144 -3052 0
-141 -2033 0
-142 -2034 0
-143 -2035 0
-144 -2036 0
-145 -517 0
-146 -518 0
-147 -519 0
-148 -520 0
-145 -2057 0
-146 -2058 0
-147 -2059 0
-148 -2060 0
-145 -3717 0
-146 -3718 0
-147 -3719 0
-148 -3720 0
-145 -545 0
-146 -546 0
-147 -547 0
-148 -548 0
-145 -673 0
-146 -674 0
-147 -675 0
-148 -676 0
-145 -5169 0
-146 -5170 0
-147 -5171 0
-148 -5172 0
-145 -453 0
-146 -454 0
-147 -455 0
-148 -456 0
-145 -849 0
-146 -850 0
-147 -851 0
-148 -852 0
-145 -4177 0
-146 -4178 0
-147 -4179 0
-148 -4180 0
-145 -1257 0
-146 -1258 0
-147 -1259 0
-148 -1260 0
-145 -2033 0
-146 -2034 0
-147 -2035 0
-148 -2036 0
-149 -1285 0
-150 -1286 0
-151 -1287 0
-152 -1288 0
-149 -905 0
-150 -906 0
-151 -907 0
-152 -908 0
-149 -3089 0
-150 -3090 0
-151 -3091 0
-152 -3092 0
-149 -533 0
-150 -534 0
-151 -535 0
-152 -536 0
-149 -4497 0
-150 -4498 0
-151 -4499 0
-152 -4500 0
-149 -2341 0
-150 -2342 0
-151 -2343 0
-152 -2344 0
-149 -301 0
-150 -302 0
-151 -303 0
-152 -304 0
-149 -181 0
-150 -182 0
-151 -183 0
-152 -184 0
-149 -189 0
-150 -190 0
-151 -191 0
-152 -192 0
-149 -6101 0
-150 -6102 0
-151 -6103 0
-152 -6104 0
-149 -1117 0
-150 -1118 0
-151 -1119 0
-152 -1120 0
-153 -517 0
-154 -518 0
-155 -519 0
-156 -520 0
-153 -1545 0
-154 -1546 0
-155 -1547 0
-156 -1548 0
-153 -549 0
-154 -550 0
-155 -551 0
-156 -552 0
-153 -557 0
-154 -558 0
-155 -559 0
-156 -560 0
-153 -573 0
-154 -574 0
-155 -575 0
-156 -576 0
-153 -577 0
-154 -578 0
-155 -579 0
-156 -580 0
-153 -1605 0
-154 -1606 0
-155 -1607 0
-156 -1608 0
-153 -3141 0
-154 -3142 0
-155 -3143 0
-156 -3144 0
-153 -589 0
-154 -590 0
-155 -591 0
-156 -592 0
-153 -4213 0
-154 -4214 0
-155 -4215 0
-156 -4216 0
-153 -3789 0
-154 -3790 0
-155 -3791 0
-156 -3792 0
-153 -3305 0
-154 -3306 0
-155 -3307 0
-156 -3308 0
-153 -4337 0
-154 -4338 0
-155 -4339 0
-156 -4340 0
-153 -1285 0
-154 -1286 0
-155 -1287 0
-156 -1288 0
-153 -2341 0
-154 -2342 0
-155 -2343 0
-156 -2344 0
-153 -305 0
-154 -306 0
-155 -307 0
-156 -308 0
-153 -2377 0
-154 -2378 0
-155 -2379 0
-156 -2380 0
-153 -861 0
-154 -862 0
-155 -863 0
-156 -864 0
-153 -933 0
-154 -934 0
-155 -935 0
-156 -936 0
-153 -473 0
-154 -474 0
-155 -475 0
-156 -476 0
-157 -649 0
-158 -650 0
-159 -651 0
-160 -652 0
-157 -2073 0
-158 -2074 0
-159 -2075 0
-160 -2076 0
-157 -161 0
-158 -162 0
-159 -163 0
-160 -164 0
-157 -425 0
-158 -426 0
-159 -427 0
-160 -428 0
-157 -1961 0
-158 -1962 0
-159 -1963 0
-160 -1964 0
-157 -2349 0
-158 -2350 0
-159 -2351 0
-160 -2352 0
-157 -309 0
-158 -310 0
-159 -311 0
-160 -312 0
-157 -2105 0
-158 -2106 0
-159 -2107 0
-160 -2108 0
-157 -3793 0
-158 -3794 0
-159 -3795 0
-160 -3796 0
-157 -865 0
-158 -866 0
-159 -867 0
-160 -868 0
-157 -361 0
-158 -362 0
-159 -363 0
-160 -364 0
-157 -4341 0
-158 -4342 0
-159 -4343 0
-160 -4344 0
-157 -377 0
-158 -378 0
-159 -379 0
-160 -380 0
-157 -1145 0
-158 -1146 0
-159 -1147 0
-160 -1148 0
-161 -513 0
-162 -514 0
-163 -515 0
-164 -516 0
-161 -529 0
-162 -530 0
-163 -531 0
-164 -532 0
-161 -4241 0
-162 -4242 0
-163 -4243 0
-164 -4244 0
-161 -2729 0
-162 -2730 0
-163 -2731 0
-164 -2732 0
-161 -1973 0
-162 -1974 0
-163 -1975 0
-164 -1976 0
-161 -453 0
-162 -454 0
-163 -455 0
-164 -456 0
-161 -3577 0
-162 -3578 0
-163 -3579 0
-164 -3580 0
-161 -3149 0
-162 -3150 0
-163 -3151 0
-164 -3152 0
-161 -873 0
-162 -874 0
-163 -875 0
-164 -876 0
-165 -2433 0
-166 -2434 0
-167 -2435 0
-168 -2436 0
-165 -901 0
-166 -902 0
-167 -903 0
-168 -904 0
-165 -905 0
-166 -906 0
-167 -907 0
-168 -908 0
-165 -3845 0
-166 -3846 0
-167 -3847 0
-168 -3848 0
-165 -1189 0
-166 -1190 0
-167 -1191 0
-168 -1192 0
-165 -169 0
-166 -170 0
-167 -171 0
-168 -172 0
-165 -6073 0
-166 -6074 0
-167 -6075 0
-168 -6076 0
-165 -1341 0
-166 -1342 0
-167 -1343 0
-168 -1344 0
-165 -193 0
-166 -194 0
-167 -195 0
-168 -196 0
-165 -4413 0
-166 -4414 0
-167 -4415 0
-168 -4416 0
-165 -2253 0
-166 -2254 0
-167 -2255 0
-168 -2256 0
-165 -2129 0
-166 -2130 0
-167 -2131 0
-168 -2132 0
-165 -2393 0
-166 -2394 0
-167 -2395 0
-168 -2396 0
-169 -569 0
-170 -570 0
-171 -571 0
-172 -572 0
-169 -2117 0
-170 -2118 0
-171 -2119 0
-172 -2120 0
-169 -585 0
-170 -586 0
-171 -587 0
-172 -588 0
-169 -3217 0
-170 -3218 0
-171 -3219 0
-172 -3220 0
-169 -1193 0
-170 -1194 0
-171 -1195 0
-172 -1196 0
-169 -197 0
-170 -198 0
-171 -199 0
-172 -200 0
-169 -709 0
-170 -710 0
-171 -711 0
-172 -712 0
-169 -3833 0
-170 -3834 0
-171 -3835 0
-172 -3836 0
-169 -3361 0
-170 -3362 0
-171 -3363 0
-172 -3364 0
-169 -1345 0
-170 -1346 0
-171 -1347 0
-172 -1348 0
-169 -905 0
-170 -906 0
-171 -907 0
-172 -908 0
-169 -909 0
-170 -910 0
-171 -911 0
-172 -912 0
-169 -2453 0
-170 -2454 0
-171 -2455 0
-172 -2456 0
-169 -4529 0
-170 -4530 0
-171 -4531 0
-172 -4532 0
-169 -1469 0
-170 -1470 0
-171 -1471 0
-172 -1472 0
-169 -6117 0
-170 -6118 0
-171 -6119 0
-172 -6120 0
-169 -5105 0
-170 -5106 0
-171 -5107 0
-172 -5108 0
-169 -6137 0
-170 -6138 0
-171 -6139 0
-172 -6140 0
-173 -2433 0
-174 -2434 0
-175 -2435 0
-176 -2436 0
-173 -5249 0
-174 -5250 0
-175 -5251 0
-176 -5252 0
-173 -1421 0
-174 -1422 0
-175 -1423 0
-176 -1424 0
-173 -3225 0
-174 -3226 0
-175 -3227 0
-176 -3228 0
-173 -929 0
-174 -930 0
-175 -931 0
-176 -932 0
-173 -933 0
-174 -934 0
-175 -935 0
-176 -936 0
-173 -1701 0
-174 -1702 0
-175 -1703 0
-176 -1704 0
-173 -4265 0
-174 -4266 0
-175 -4267 0
-176 -4268 0
-173 -177 0
-174 -178 0
-175 -179 0
-176 -180 0
-173 -1341 0
-174 -1342 0
-175 -1343 0
-176 -1344 0
-173 -1601 0
-174 -1602 0
-175 -1603 0
-176 -1604 0
-173 -3401 0
-174 -3402 0
-175 -3403 0
-176 -3404 0
-173 -4445 0
-174 -4446 0
-175 -4447 0
-176 -4448 0
-173 -605 0
-174 -606 0
-175 -607 0
-176 -608 0
-173 -489 0
-174 -490 0
-175 -491 0
-176 -492 0
-177 -6145 0
-178 -6146 0
-179 -6147 0
-180 -6148 0
-177 -1425 0
-178 -1426 0
-179 -1427 0
-180 -1428 0
-177 -3873 0
-178 -3874 0
-179 -3875 0
-180 -3876 0
-177 -933 0
-178 -934 0
-179 -935 0
-180 -936 0
-177 -937 0
-178 -938 0
-179 -939 0
-180 -940 0
-177 -569 0
-178 -570 0
-179 -571 0
-180 -572 0
-177 -1345 0
-178 -1346 0
-179 -1347 0
-180 -1348 0
-177 -1605 0
-178 -1606 0
-179 -1607 0
-180 -1608 0
-177 -3405 0
-178 -3406 0
-179 -3407 0
-180 -3408 0
-177 -609 0
-178 -610 0
-179 -611 0
-180 -612 0
-181 -5257 0
-182 -5258 0
-183 -5259 0
-184 -5260 0
-181 -425 0
-182 -426 0
-183 -427 0
-184 -428 0
-181 -185 0
-182 -186 0
-183 -187 0
-184 -188 0
-181 -1469 0
-182 -1470 0
-183 -1471 0
-184 -1472 0
-181 -1645 0
-182 -1646 0
-183 -1647 0
-184 -1648 0
-181 -749 0
-182 -750 0
-183 -751 0
-184 -752 0
-181 -2165 0
-182 -2166 0
-183 -2167 0
-184 -2168 0
-185 -389 0
-186 -390 0
-187 -391 0
-188 -392 0
-185 -277 0
-186 -278 0
-187 -279 0
-188 -280 0
-185 -2197 0
-186 -2198 0
-187 -2199 0
-188 -2200 0
-185 -949 0
-186 -950 0
-187 -951 0
-188 -952 0
-185 -453 0
-186 -454 0
-187 -455 0
-188 -456 0
-185 -3269 0
-186 -3270 0
-187 -3271 0
-188 -3272 0
-185 -973 0
-186 -974 0
-187 -975 0
-188 -976 0
-185 -593 0
-186 -594 0
-187 -595 0
-188 -596 0
-185 -597 0
-186 -598 0
-187 -599 0
-188 -600 0
-185 -1237 0
-186 -1238 0
-187 -1239 0
-188 -1240 0
-185 -349 0
-186 -350 0
-187 -351 0
-188 -352 0
-185 -4321 0
-186 -4322 0
-187 -4323 0
-188 -4324 0
-185 -357 0
-186 -358 0
-187 -359 0
-188 -360 0
-185 -1653 0
-186 -1654 0
-187 -1655 0
-188 -1656 0
-189 -1409 0
-190 -1410 0
-191 -1411 0
-192 -1412 0
-189 -1285 0
-190 -1286 0
-191 -1287 0
-192 -1288 0
-189 -613 0
-190 -614 0
-191 -615 0
-192 -616 0
-189 -1801 0
-190 -1802 0
-191 -1803 0
-192 -1804 0
-189 -1065 0
-190 -1066 0
-191 -1067 0
-192 -1068 0
-189 -813 0
-190 -814 0
-191 -815 0
-192 -816 0
-189 -2349 0
-190 -2350 0
-191 -2351 0
-192 -2352 0
-189 -1721 0
-190 -1722 0
-191 -1723 0
-192 -1724 0
-189 -2489 0
-190 -2490 0
-191 -2491 0
-192 -2492 0
-189 -2881 0
-190 -2882 0
-191 -2883 0
-192 -2884 0
-189 -4421 0
-190 -4422 0
-191 -4423 0
-192 -4424 0
-189 -5205 0
-190 -5206 0
-191 -5207 0
-192 -5208 0
-189 -357 0
-190 -358 0
-191 -359 0
-192 -360 0
-189 -3957 0
-190 -3958 0
-191 -3959 0
-192 -3960 0
-193 -2437 0
-194 -2438 0
-195 -2439 0
-196 -2440 0
-193 -1065 0
-194 -1066 0
-195 -1067 0
-196 -1068 0
-193 -1061 0
-194 -1062 0
-195 -1063 0
-196 -1064 0
-193 -1445 0
-194 -1446 0
-195 -1447 0
-196 -1448 0
-193 -4025 0
-194 -4026 0
-195 -4027 0
-196 -4028 0
-193 -1341 0
-194 -1342 0
-195 -1343 0
-196 -1344 0
-193 -1089 0
-194 -1090 0
-195 -1091 0
-196 -1092 0
-193 -197 0
-194 -198 0
-195 -199 0
-196 -200 0
-193 -3413 0
-194 -3414 0
-195 -3415 0
-196 -3416 0
-193 -233 0
-194 -234 0
-195 -235 0
-196 -236 0
-193 -4601 0
-194 -4602 0
-195 -4603 0
-196 -4604 0
-197 -2313 0
-198 -2314 0
-199 -2315 0
-200 -2316 0
-197 -2441 0
-198 -2442 0
-199 -2443 0
-200 -2444 0
-197 -1069 0
-198 -1070 0
-199 -1071 0
-200 -1072 0
-197 -1065 0
-198 -1066 0
-199 -1067 0
-200 -1068 0
-197 -1449 0
-198 -1450 0
-199 -1451 0
-200 -1452 0
-197 -1721 0
-198 -1722 0
-199 -1723 0
-200 -1724 0
-197 -1345 0
-198 -1346 0
-199 -1347 0
-200 -1348 0
-197 -4029 0
-198 -4030 0
-199 -4031 0
-200 -4032 0
-197 -5957 0
-198 -5958 0
-199 -5959 0
-200 -5960 0
-197 -1753 0
-198 -1754 0
-199 -1755 0
-200 -1756 0
-197 -3417 0
-198 -3418 0
-199 -3419 0
-200 -3420 0
-197 -1909 0
-198 -1910 0
-199 -1911 0
-200 -1912 0
-201 -385 0
-202 -386 0
-203 -387 0
-204 -388 0
-201 -4525 0
-202 -4526 0
-203 -4527 0
-204 -4528 0
-201 -2353 0
-202 -2354 0
-203 -2355 0
-204 -2356 0
-201 -1493 0
-202 -1494 0
-203 -1495 0
-204 -1496 0
-201 -1001 0
-202 -1002 0
-203 -1003 0
-204 -1004 0
-201 -1133 0
-202 -1134 0
-203 -1135 0
-204 -1136 0
-201 -497 0
-202 -498 0
-203 -499 0
-204 -500 0
-201 -629 0
-202 -630 0
-203 -631 0
-204 -632 0
-205 -389 0
-206 -390 0
-207 -391 0
-208 -392 0
-205 -5521 0
-206 -5522 0
-207 -5523 0
-208 -5524 0
-205 -2333 0
-206 -2334 0
-207 -2335 0
-208 -2336 0
-205 -425 0
-206 -426 0
-207 -427 0
-208 -428 0
-205 -1833 0
-206 -1834 0
-207 -1835 0
-208 -1836 0
-205 -2353 0
-206 -2354 0
-207 -2355 0
-208 -2356 0
-205 -209 0
-206 -210 0
-207 -211 0
-208 -212 0
-205 -341 0
-206 -342 0
-207 -343 0
-208 -344 0
-205 -1497 0
-206 -1498 0
-207 -1499 0
-208 -1500 0
-205 -221 0
-206 -222 0
-207 -223 0
-208 -224 0
-205 -3561 0
-206 -3562 0
-207 -3563 0
-208 -3564 0
-205 -629 0
-206 -630 0
-207 -631 0
-208 -632 0
-209 -393 0
-210 -394 0
-211 -395 0
-212 -396 0
-209 -3869 0
-210 -3870 0
-211 -3871 0
-212 -3872 0
-209 -2353 0
-210 -2354 0
-211 -2355 0
-212 -2356 0
-209 -453 0
-210 -454 0
-211 -455 0
-212 -456 0
-209 -2377 0
-210 -2378 0
-211 -2379 0
-212 -2380 0
-209 -3781 0
-210 -3782 0
-211 -3783 0
-212 -3784 0
-209 -229 0
-210 -230 0
-211 -231 0
-212 -232 0
-213 -1417 0
-214 -1418 0
-215 -1419 0
-216 -1420 0
-213 -1181 0
-214 -1182 0
-215 -1183 0
-216 -1184 0
-213 -2401 0
-214 -2402 0
-215 -2403 0
-216 -2404 0
-213 -3017 0
-214 -3018 0
-215 -3019 0
-216 -3020 0
-213 -4553 0
-214 -4554 0
-215 -4555 0
-216 -4556 0
-213 -2901 0
-214 -2902 0
-215 -2903 0
-216 -2904 0
-213 -4573 0
-214 -4574 0
-215 -4575 0
-216 -4576 0
-213 -1117 0
-214 -1118 0
-215 -1119 0
-216 -1120 0
-213 -1889 0
-214 -1890 0
-215 -1891 0
-216 -1892 0
-213 -241 0
-214 -242 0
-215 -243 0
-216 -244 0
-213 -2041 0
-214 -2042 0
-215 -2043 0
-216 -2044 0
-217 -909 0
-218 -910 0
-219 -911 0
-220 -912 0
-217 -4121 0
-218 -4122 0
-219 -4123 0
-220 -4124 0
-217 -5529 0
-218 -5530 0
-219 -5531 0
-220 -5532 0
-217 -1189 0
-218 -1190 0
-219 -1191 0
-220 -1192 0
-217 -425 0
-218 -426 0
-219 -427 0
-220 -428 0
-217 -2401 0
-218 -2402 0
-219 -2403 0
-220 -2404 0
-217 -3497 0
-218 -3498 0
-219 -3499 0
-220 -3500 0
-217 -593 0
-218 -594 0
-219 -595 0
-220 -596 0
-217 -2385 0
-218 -2386 0
-219 -2387 0
-220 -2388 0
-217 -4573 0
-218 -4574 0
-219 -4575 0
-220 -4576 0
-217 -1117 0
-218 -1118 0
-219 -1119 0
-220 -1120 0
-217 -225 0
-218 -226 0
-219 -227 0
-220 -228 0
-217 -1905 0
-218 -1906 0
-219 -1907 0
-220 -1908 0
-217 -241 0
-218 -242 0
-219 -243 0
-220 -244 0
-217 -2925 0
-218 -2926 0
-219 -2927 0
-220 -2928 0
-217 -893 0
-218 -894 0
-219 -895 0
-220 -896 0
-221 -3585 0
-222 -3586 0
-223 -3587 0
-224 -3588 0
-221 -2057 0
-222 -2058 0
-223 -2059 0
-224 -2060 0
-221 -909 0
-222 -910 0
-223 -911 0
-224 -912 0
-221 -2825 0
-222 -2826 0
-223 -2827 0
-224 -2828 0
-221 -425 0
-222 -426 0
-223 -427 0
-224 -428 0
-221 -3505 0
-222 -3506 0
-223 -3507 0
-224 -3508 0
-221 -1993 0
-222 -1994 0
-223 -1995 0
-224 -1996 0
-221 -2389 0
-222 -2390 0
-223 -2391 0
-224 -2392 0
-221 -477 0
-222 -478 0
-223 -479 0
-224 -480 0
-221 -229 0
-222 -230 0
-223 -231 0
-224 -232 0
-221 -2413 0
-222 -2414 0
-223 -2415 0
-224 -2416 0
-221 -365 0
-222 -366 0
-223 -367 0
-224 -368 0
-221 -2933 0
-222 -2934 0
-223 -2935 0
-224 -2936 0
-221 -1917 0
-222 -1918 0
-223 -1919 0
-224 -1920 0
-225 -521 0
-226 -522 0
-227 -523 0
-228 -524 0
-225 -577 0
-226 -578 0
-227 -579 0
-228 -580 0
-225 -3685 0
-226 -3686 0
-227 -3687 0
-228 -3688 0
-225 -1137 0
-226 -1138 0
-227 -1139 0
-228 -1140 0
-225 -641 0
-226 -642 0
-227 -643 0
-228 -644 0
-225 -1201 0
-226 -1202 0
-227 -1203 0
-228 -1204 0
-225 -5313 0
-226 -5314 0
-227 -5315 0
-228 -5316 0
-225 -3821 0
-226 -3822 0
-227 -3823 0
-228 -3824 0
-225 -281 0
-226 -282 0
-227 -283 0
-228 -284 0
-225 -1817 0
-226 -1818 0
-227 -1819 0
-228 -1820 0
-225 -3921 0
-226 -3922 0
-227 -3923 0
-228 -3924 0
-225 -5981 0
-226 -5982 0
-227 -5983 0
-228 -5984 0
-225 -2401 0
-226 -2402 0
-227 -2403 0
-228 -2404 0
-225 -2433 0
-226 -2434 0
-227 -2435 0
-228 -2436 0
-225 -5513 0
-226 -5514 0
-227 -5515 0
-228 -5516 0
-225 -3493 0
-226 -3494 0
-227 -3495 0
-228 -3496 0
-225 -453 0
-226 -454 0
-227 -455 0
-228 -456 0
-225 -2009 0
-226 -2010 0
-227 -2011 0
-228 -2012 0
-229 -653 0
-230 -654 0
-231 -655 0
-232 -656 0
-229 -2445 0
-230 -2446 0
-231 -2447 0
-232 -2448 0
-229 -3601 0
-230 -3602 0
-231 -3603 0
-232 -3604 0
-229 -5521 0
-230 -5522 0
-231 -5523 0
-232 -5524 0
-229 -1833 0
-230 -1834 0
-231 -1835 0
-232 -1836 0
-229 -453 0
-230 -454 0
-231 -455 0
-232 -456 0
-229 -5329 0
-230 -5330 0
-231 -5331 0
-232 -5332 0
-229 -481 0
-230 -482 0
-231 -483 0
-232 -484 0
-229 -2413 0
-230 -2414 0
-231 -2415 0
-232 -2416 0
-233 -1153 0
-234 -1154 0
-235 -1155 0
-236 -1156 0
-233 -2313 0
-234 -2314 0
-235 -2315 0
-236 -2316 0
-233 -3509 0
-234 -3510 0
-235 -3511 0
-236 -3512 0
-233 -3065 0
-234 -3066 0
-235 -3067 0
-236 -3068 0
-233 -1345 0
-234 -1346 0
-235 -1347 0
-236 -1348 0
-233 -577 0
-234 -578 0
-235 -579 0
-236 -580 0
-233 -4153 0
-234 -4154 0
-235 -4155 0
-236 -4156 0
-233 -3417 0
-234 -3418 0
-235 -3419 0
-236 -3420 0
-233 -4597 0
-234 -4598 0
-235 -4599 0
-236 -4600 0
-233 -2041 0
-234 -2042 0
-235 -2043 0
-236 -2044 0
-237 -385 0
-238 -386 0
-239 -387 0
-240 -388 0
-237 -1285 0
-238 -1286 0
-239 -1287 0
-240 -1288 0
-237 -661 0
-238 -662 0
-239 -663 0
-240 -664 0
-237 -3037 0
-238 -3038 0
-239 -3039 0
-240 -3040 0
-237 -497 0
-238 -498 0
-239 -499 0
-240 -500 0
-241 -2565 0
-242 -2566 0
-243 -2567 0
-244 -2568 0
-241 -4109 0
-242 -4110 0
-243 -4111 0
-244 -4112 0
-241 -541 0
-242 -542 0
-243 -543 0
-244 -544 0
-241 -1057 0
-242 -1058 0
-243 -1059 0
-244 -1060 0
-241 -1069 0
-242 -1070 0
-243 -1071 0
-244 -1072 0
-241 -1597 0
-242 -1598 0
-243 -1599 0
-244 -1600 0
-241 -3165 0
-242 -3166 0
-243 -3167 0
-244 -3168 0
-241 -4717 0
-242 -4718 0
-243 -4719 0
-244 -4720 0
-241 -2181 0
-242 -2182 0
-243 -2183 0
-244 -2184 0
-241 -2205 0
-242 -2206 0
-243 -2207 0
-244 -2208 0
-241 -677 0
-242 -678 0
-243 -679 0
-244 -680 0
-241 -3297 0
-242 -3298 0
-243 -3299 0
-244 -3300 0
-241 -4321 0
-242 -4322 0
-243 -4323 0
-244 -4324 0
-241 -245 0
-242 -246 0
-243 -247 0
-244 -248 0
-241 -1281 0
-242 -1282 0
-243 -1283 0
-244 -1284 0
-241 -1285 0
-242 -1286 0
-243 -1287 0
-244 -1288 0
-241 -1341 0
-242 -1342 0
-243 -1343 0
-244 -1344 0
-241 -5453 0
-242 -5454 0
-243 -5455 0
-244 -5456 0
-241 -2509 0
-242 -2510 0
-243 -2511 0
-244 -2512 0
-241 -2517 0
-242 -2518 0
-243 -2519 0
-244 -2520 0
-241 -3033 0
-242 -3034 0
-243 -3035 0
-244 -3036 0
-241 -4077 0
-242 -4078 0
-243 -4079 0
-244 -4080 0
-245 -2561 0
-246 -2562 0
-247 -2563 0
-248 -2564 0
-245 -1285 0
-246 -1286 0
-247 -1287 0
-248 -1288 0
-245 -1289 0
-246 -1290 0
-247 -1291 0
-248 -1292 0
-245 -545 0
-246 -546 0
-247 -547 0
-248 -548 0
-245 -681 0
-246 -682 0
-247 -683 0
-248 -684 0
-245 -1073 0
-246 -1074 0
-247 -1075 0
-248 -1076 0
-245 -441 0
-246 -442 0
-247 -443 0
-248 -444 0
-245 -1345 0
-246 -1346 0
-247 -1347 0
-248 -1348 0
-245 -2121 0
-246 -2122 0
-247 -2123 0
-248 -2124 0
-245 -3037 0
-246 -3038 0
-247 -3039 0
-248 -3040 0
-245 -3169 0
-246 -3170 0
-247 -3171 0
-248 -3172 0
-245 -4325 0
-246 -4326 0
-247 -4327 0
-248 -4328 0
-245 -6141 0
-246 -6142 0
-247 -6143 0
-248 -6144 0
-249 -4429 0
-250 -4430 0
-251 -4431 0
-252 -4432 0
-249 -1341 0
-250 -1342 0
-251 -1343 0
-252 -1344 0
-249 -1337 0
-250 -1338 0
-251 -1339 0
-252 -1340 0
-249 -253 0
-250 -254 0
-251 -255 0
-252 -256 0
-253 -1341 0
-254 -1342 0
-255 -1343 0
-256 -1344 0
-253 -1345 0
-254 -1346 0
-255 -1347 0
-256 -1348 0
-253 -3393 0
-254 -3394 0
-255 -3395 0
-256 -3396 0
-253 -4433 0
-254 -4434 0
-255 -4435 0
-256 -4436 0
-253 -3165 0
-254 -3166 0
-255 -3167 0
-256 -3168 0
-253 -485 0
-254 -486 0
-255 -487 0
-256 -488 0
-253 -4077 0
-254 -4078 0
-255 -4079 0
-256 -4080 0
-257 -261 0
-258 -262 0
-259 -263 0
-260 -264 0
-257 -905 0
-258 -906 0
-259 -907 0
-260 -908 0
-257 -273 0
-258 -274 0
-259 -275 0
-260 -276 0
-257 -1557 0
-258 -1558 0
-259 -1559 0
-260 -1560 0
-257 -2221 0
-258 -2222 0
-259 -2223 0
-260 -2224 0
-257 -1893 0
-258 -1894 0
-259 -1895 0
-260 -1896 0
-257 -1497 0
-258 -1498 0
-259 -1499 0
-260 -1500 0
-257 -733 0
-258 -734 0
-259 -735 0
-260 -736 0
-257 -741 0
-258 -742 0
-259 -743 0
-260 -744 0
-257 -1141 0
-258 -1142 0
-259 -1143 0
-260 -1144 0
-257 -3961 0
-258 -3962 0
-259 -3963 0
-260 -3964 0
-257 -893 0
-258 -894 0
-259 -895 0
-260 -896 0
-261 -1541 0
-262 -1542 0
-263 -1543 0
-264 -1544 0
-261 -265 0
-262 -266 0
-263 -267 0
-264 -268 0
-261 -905 0
-262 -906 0
-263 -907 0
-264 -908 0
-261 -913 0
-262 -914 0
-263 -915 0
-264 -916 0
-261 -277 0
-262 -278 0
-263 -279 0
-264 -280 0
-261 -1053 0
-262 -1054 0
-263 -1055 0
-264 -1056 0
-261 -1569 0
-262 -1570 0
-263 -1571 0
-264 -1572 0
-261 -2733 0
-262 -2734 0
-263 -2735 0
-264 -2736 0
-261 -4589 0
-262 -4590 0
-263 -4591 0
-264 -4592 0
-261 -4717 0
-262 -4718 0
-263 -4719 0
-264 -4720 0
-261 -2233 0
-262 -2234 0
-263 -2235 0
-264 -2236 0
-261 -1501 0
-262 -1502 0
-263 -1503 0
-264 -1504 0
-261 -1905 0
-262 -1906 0
-263 -1907 0
-264 -1908 0
-261 -3965 0
-262 -3966 0
-263 -3967 0
-264 -3968 0
-265 -1557 0
-266 -1558 0
-267 -1559 0
-268 -1560 0
-265 -1069 0
-266 -1070 0
-267 -1071 0
-268 -1072 0
-265 -1585 0
-266 -1586 0
-267 -1587 0
-268 -1588 0
-265 -2613 0
-266 -2614 0
-267 -2615 0
-268 -2616 0
-265 -1161 0
-266 -1162 0
-267 -1163 0
-268 -1164 0
-265 -2729 0
-266 -2730 0
-267 -2731 0
-268 -2732 0
-265 -705 0
-266 -706 0
-267 -707 0
-268 -708 0
-265 -2257 0
-266 -2258 0
-267 -2259 0
-268 -2260 0
-265 -733 0
-266 -734 0
-267 -735 0
-268 -736 0
-265 -749 0
-266 -750 0
-267 -751 0
-268 -752 0
-265 -269 0
-266 -270 0
-267 -271 0
-268 -272 0
-265 -1325 0
-266 -1326 0
-267 -1327 0
-268 -1328 0
-265 -3961 0
-266 -3962 0
-267 -3963 0
-268 -3964 0
-265 -3989 0
-266 -3990 0
-267 -3991 0
-268 -3992 0
-265 -5529 0
-266 -5530 0
-267 -5531 0
-268 -5532 0
-265 -925 0
-266 -926 0
-267 -927 0
-268 -928 0
-265 -933 0
-266 -934 0
-267 -935 0
-268 -936 0
-265 -2485 0
-266 -2486 0
-267 -2487 0
-268 -2488 0
-265 -1993 0
-266 -1994 0
-267 -1995 0
-268 -1996 0
-265 -1485 0
-266 -1486 0
-267 -1487 0
-268 -1488 0
-265 -3029 0
-266 -3030 0
-267 -3031 0
-268 -3032 0
-269 -1165 0
-270 -1166 0
-271 -1167 0
-272 -1168 0
-269 -4617 0
-270 -4618 0
-271 -4619 0
-272 -4620 0
-269 -1945 0
-270 -1946 0
-271 -1947 0
-272 -1948 0
-269 -1569 0
-270 -1570 0
-271 -1571 0
-272 -1572 0
-269 -933 0
-270 -934 0
-271 -935 0
-272 -936 0
-269 -941 0
-270 -942 0
-271 -943 0
-272 -944 0
-269 -1081 0
-270 -1082 0
-271 -1083 0
-272 -1084 0
-269 -709 0
-270 -710 0
-271 -711 0
-272 -712 0
-269 -2265 0
-270 -2266 0
-271 -2267 0
-272 -2268 0
-269 -1649 0
-270 -1650 0
-271 -1651 0
-272 -1652 0
-269 -753 0
-270 -754 0
-271 -755 0
-272 -756 0
-269 -4725 0
-270 -4726 0
-271 -4727 0
-272 -4728 0
-269 -3965 0
-270 -3966 0
-271 -3967 0
-272 -3968 0
-273 -3849 0
-274 -3850 0
-275 -3851 0
-276 -3852 0
-273 -277 0
-274 -278 0
-275 -279 0
-276 -280 0
-273 -281 0
-274 -282 0
-275 -283 0
-276 -284 0
-273 -1309 0
-274 -1310 0
-275 -1311 0
-276 -1312 0
-273 -1057 0
-274 -1058 0
-275 -1059 0
-276 -1060 0
-273 -1557 0
-274 -1558 0
-275 -1559 0
-276 -1560 0
-273 -809 0
-274 -810 0
-275 -811 0
-276 -812 0
-273 -1065 0
-274 -1066 0
-275 -1067 0
-276 -1068 0
-273 -1693 0
-274 -1694 0
-275 -1695 0
-276 -1696 0
-273 -2709 0
-274 -2710 0
-275 -2711 0
-276 -2712 0
-273 -6073 0
-274 -6074 0
-275 -6075 0
-276 -6076 0
-273 -2117 0
-274 -2118 0
-275 -2119 0
-276 -2120 0
-273 -857 0
-274 -858 0
-275 -859 0
-276 -860 0
-273 -4185 0
-274 -4186 0
-275 -4187 0
-276 -4188 0
-273 -2925 0
-274 -2926 0
-275 -2927 0
-276 -2928 0
-273 -2165 0
-274 -2166 0
-275 -2167 0
-276 -2168 0
-277 -1569 0
-278 -1570 0
-279 -1571 0
-280 -1572 0
-277 -5153 0
-278 -5154 0
-279 -5155 0
-280 -5156 0
-277 -1065 0
-278 -1066 0
-279 -1067 0
-280 -1068 0
-277 -1077 0
-278 -1078 0
-279 -1079 0
-280 -1080 0
-277 -5185 0
-278 -5186 0
-279 -5187 0
-280 -5188 0
-277 -4705 0
-278 -4706 0
-279 -4707 0
-280 -4708 0
-277 -1701 0
-278 -1702 0
-279 -1703 0
-280 -1704 0
-277 -781 0
-278 -782 0
-279 -783 0
-280 -784 0
-277 -1817 0
-278 -1818 0
-279 -1819 0
-280 -1820 0
-277 -805 0
-278 -806 0
-279 -807 0
-280 -808 0
-277 -829 0
-278 -830 0
-279 -831 0
-280 -832 0
-277 -2885 0
-278 -2886 0
-279 -2887 0
-280 -2888 0
-277 -861 0
-278 -862 0
-279 -863 0
-280 -864 0
-277 -5533 0
-278 -5534 0
-279 -5535 0
-280 -5536 0
-277 -6065 0
-278 -6066 0
-279 -6067 0
-280 -6068 0
-277 -3545 0
-278 -3546 0
-279 -3547 0
-280 -3548 0
-281 -1597 0
-282 -1598 0
-283 -1599 0
-284 -1600 0
-281 -1101 0
-282 -1102 0
-283 -1103 0
-284 -1104 0
-281 -4209 0
-282 -4210 0
-283 -4211 0
-284 -4212 0
-281 -1141 0
-282 -1142 0
-283 -1143 0
-284 -1144 0
-281 -5233 0
-282 -5234 0
-283 -5235 0
-284 -5236 0
-281 -4241 0
-282 -4242 0
-283 -4243 0
-284 -4244 0
-281 -2221 0
-282 -2222 0
-283 -2223 0
-284 -2224 0
-281 -1717 0
-282 -1718 0
-283 -1719 0
-284 -1720 0
-281 -1733 0
-282 -1734 0
-283 -1735 0
-284 -1736 0
-281 -2757 0
-282 -2758 0
-283 -2759 0
-284 -2760 0
-281 -741 0
-282 -742 0
-283 -743 0
-284 -744 0
-281 -4901 0
-282 -4902 0
-283 -4903 0
-284 -4904 0
-281 -317 0
-282 -318 0
-283 -319 0
-284 -320 0
-281 -3913 0
-282 -3914 0
-283 -3915 0
-284 -3916 0
-281 -1893 0
-282 -1894 0
-283 -1895 0
-284 -1896 0
-281 -905 0
-282 -906 0
-283 -907 0
-284 -908 0
-281 -2465 0
-282 -2466 0
-283 -2467 0
-284 -2468 0
-281 -2981 0
-282 -2982 0
-283 -2983 0
-284 -2984 0
-281 -6113 0
-282 -6114 0
-283 -6115 0
-284 -6116 0
-281 -485 0
-282 -486 0
-283 -487 0
-284 -488 0
-285 -1161 0
-286 -1162 0
-287 -1163 0
-288 -1164 0
-285 -4241 0
-286 -4242 0
-287 -4243 0
-288 -4244 0
-285 -933 0
-286 -934 0
-287 -935 0
-288 -936 0
-285 -4773 0
-286 -4774 0
-287 -4775 0
-288 -4776 0
-285 -2485 0
-286 -2486 0
-287 -2487 0
-288 -2488 0
-285 -1733 0
-286 -1734 0
-287 -1735 0
-288 -1736 0
-285 -2257 0
-286 -2258 0
-287 -2259 0
-288 -2260 0
-285 -745 0
-286 -746 0
-287 -747 0
-288 -748 0
-285 -5233 0
-286 -5234 0
-287 -5235 0
-288 -5236 0
-289 -905 0
-290 -906 0
-291 -907 0
-292 -908 0
-289 -781 0
-290 -782 0
-291 -783 0
-292 -784 0
-289 -3349 0
-290 -3350 0
-291 -3351 0
-292 -3352 0
-289 -921 0
-290 -922 0
-291 -923 0
-292 -924 0
-289 -2657 0
-290 -2658 0
-291 -2659 0
-292 -2660 0
-289 -4793 0
-290 -4794 0
-291 -4795 0
-292 -4796 0
-289 -3013 0
-290 -3014 0
-291 -3015 0
-292 -3016 0
-289 -349 0
-290 -350 0
-291 -351 0
-292 -352 0
-289 -865 0
-290 -866 0
-291 -867 0
-292 -868 0
-289 -3049 0
-290 -3050 0
-291 -3051 0
-292 -3052 0
-293 -1157 0
-294 -1158 0
-295 -1159 0
-296 -1160 0
-293 -3597 0
-294 -3598 0
-295 -3599 0
-296 -3600 0
-293 -1309 0
-294 -1310 0
-295 -1311 0
-296 -1312 0
-293 -929 0
-294 -930 0
-295 -931 0
-296 -932 0
-293 -1569 0
-294 -1570 0
-295 -1571 0
-296 -1572 0
-293 -4805 0
-294 -4806 0
-295 -4807 0
-296 -4808 0
-293 -3793 0
-294 -3794 0
-295 -3795 0
-296 -3796 0
-293 -4721 0
-294 -4722 0
-295 -4723 0
-296 -4724 0
-297 -1165 0
-298 -1166 0
-299 -1167 0
-300 -1168 0
-297 -1173 0
-298 -1174 0
-299 -1175 0
-300 -1176 0
-297 -805 0
-298 -806 0
-299 -807 0
-300 -808 0
-297 -933 0
-298 -934 0
-299 -935 0
-300 -936 0
-297 -709 0
-298 -710 0
-299 -711 0
-300 -712 0
-297 -981 0
-298 -982 0
-299 -983 0
-300 -984 0
-297 -4821 0
-298 -4822 0
-299 -4823 0
-300 -4824 0
-297 -865 0
-298 -866 0
-299 -867 0
-300 -868 0
-297 -3049 0
-298 -3050 0
-299 -3051 0
-300 -3052 0
-301 -905 0
-302 -906 0
-303 -907 0
-304 -908 0
-301 -781 0
-302 -782 0
-303 -783 0
-304 -784 0
-301 -2825 0
-302 -2826 0
-303 -2827 0
-304 -2828 0
-301 -1829 0
-302 -1830 0
-303 -1831 0
-304 -1832 0
-301 -1637 0
-302 -1638 0
-303 -1639 0
-304 -1640 0
-301 -2749 0
-302 -2750 0
-303 -2751 0
-304 -2752 0
-301 -3041 0
-302 -3042 0
-303 -3043 0
-304 -3044 0
-301 -737 0
-302 -738 0
-303 -739 0
-304 -740 0
-301 -357 0
-302 -358 0
-303 -359 0
-304 -360 0
-301 -1513 0
-302 -1514 0
-303 -1515 0
-304 -1516 0
-301 -889 0
-302 -890 0
-303 -891 0
-304 -892 0
-305 -1165 0
-306 -1166 0
-307 -1167 0
-308 -1168 0
-305 -2013 0
-306 -2014 0
-307 -2015 0
-308 -2016 0
-305 -3985 0
-306 -3986 0
-307 -3987 0
-308 -3988 0
-305 -805 0
-306 -806 0
-307 -807 0
-308 -808 0
-305 -933 0
-306 -934 0
-307 -935 0
-308 -936 0
-305 -1197 0
-306 -1198 0
-307 -1199 0
-308 -1200 0
-305 -817 0
-306 -818 0
-307 -819 0
-308 -820 0
-305 -1829 0
-306 -1830 0
-307 -1831 0
-308 -1832 0
-305 -709 0
-306 -710 0
-307 -711 0
-308 -712 0
-305 -965 0
-306 -966 0
-307 -967 0
-308 -968 0
-305 -989 0
-306 -990 0
-307 -991 0
-308 -992 0
-305 -3041 0
-306 -3042 0
-307 -3043 0
-308 -3044 0
-305 -1521 0
-306 -1522 0
-307 -1523 0
-308 -1524 0
-309 -5645 0
-310 -5646 0
-311 -5647 0
-312 -5648 0
-309 -541 0
-310 -542 0
-311 -543 0
-312 -544 0
-309 -4141 0
-310 -4142 0
-311 -4143 0
-312 -4144 0
-309 -633 0
-310 -634 0
-311 -635 0
-312 -636 0
-309 -1669 0
-310 -1670 0
-311 -1671 0
-312 -1672 0
-309 -1245 0
-310 -1246 0
-311 -1247 0
-312 -1248 0
-309 -2793 0
-310 -2794 0
-311 -2795 0
-312 -2796 0
-309 -2893 0
-310 -2894 0
-311 -2895 0
-312 -2896 0
-309 -345 0
-310 -346 0
-311 -347 0
-312 -348 0
-309 -381 0
-310 -382 0
-311 -383 0
-312 -384 0
-309 -389 0
-310 -390 0
-311 -391 0
-312 -392 0
-309 -905 0
-310 -906 0
-311 -907 0
-312 -908 0
-309 -1413 0
-310 -1414 0
-311 -1415 0
-312 -1416 0
-309 -5013 0
-310 -5014 0
-311 -5015 0
-312 -5016 0
-309 -4009 0
-310 -4010 0
-311 -4011 0
-312 -4012 0
-309 -5557 0
-310 -5558 0
-311 -5559 0
-312 -5560 0
-309 -953 0
-310 -954 0
-311 -955 0
-312 -956 0
-309 -993 0
-310 -994 0
-311 -995 0
-312 -996 0
-309 -1001 0
-310 -1002 0
-311 -1003 0
-312 -1004 0
-313 -905 0
-314 -906 0
-315 -907 0
-316 -908 0
-313 -3093 0
-314 -3094 0
-315 -3095 0
-316 -3096 0
-313 -933 0
-314 -934 0
-315 -935 0
-316 -936 0
-313 -5293 0
-314 -5294 0
-315 -5295 0
-316 -5296 0
-313 -829 0
-314 -830 0
-315 -831 0
-316 -832 0
-313 -3649 0
-314 -3650 0
-315 -3651 0
-316 -3652 0
-313 -5317 0
-314 -5318 0
-315 -5319 0
-316 -5320 0
-313 -3145 0
-314 -3146 0
-315 -3147 0
-316 -3148 0
-313 -2905 0
-314 -2906 0
-315 -2907 0
-316 -2908 0
-313 -1005 0
-314 -1006 0
-315 -1007 0
-316 -1008 0
-317 -3205 0
-318 -3206 0
-319 -3207 0
-320 -3208 0
-317 -1309 0
-318 -1310 0
-319 -1311 0
-320 -1312 0
-317 -1065 0
-318 -1066 0
-319 -1067 0
-320 -1068 0
-317 -1965 0
-318 -1966 0
-319 -1967 0
-320 -1968 0
-317 -3241 0
-318 -3242 0
-319 -3243 0
-320 -3244 0
-317 -1985 0
-318 -1986 0
-319 -1987 0
-320 -1988 0
-317 -1733 0
-318 -1734 0
-319 -1735 0
-320 -1736 0
-317 -2117 0
-318 -2118 0
-319 -2119 0
-320 -2120 0
-317 -6089 0
-318 -6090 0
-319 -6091 0
-320 -6092 0
-317 -6097 0
-318 -6098 0
-319 -6099 0
-320 -6100 0
-317 -4465 0
-318 -4466 0
-319 -4467 0
-320 -4468 0
-317 -4981 0
-318 -4982 0
-319 -4983 0
-320 -4984 0
-321 -4885 0
-322 -4886 0
-323 -4887 0
-324 -4888 0
-321 -1253 0
-322 -1254 0
-323 -1255 0
-324 -1256 0
-321 -989 0
-322 -990 0
-323 -991 0
-324 -992 0
-321 -2849 0
-322 -2850 0
-323 -2851 0
-324 -2852 0
-321 -425 0
-322 -426 0
-323 -427 0
-324 -428 0
-321 -1005 0
-322 -1006 0
-323 -1007 0
-324 -1008 0
-321 -2889 0
-322 -2890 0
-323 -2891 0
-324 -2892 0
-321 -1997 0
-322 -1998 0
-323 -1999 0
-324 -2000 0
-321 -337 0
-322 -338 0
-323 -339 0
-324 -340 0
-321 -861 0
-322 -862 0
-323 -863 0
-324 -864 0
-321 -733 0
-322 -734 0
-323 -735 0
-324 -736 0
-321 -877 0
-322 -878 0
-323 -879 0
-324 -880 0
-321 -1273 0
-322 -1274 0
-323 -1275 0
-324 -1276 0
-325 -1285 0
-326 -1286 0
-327 -1287 0
-328 -1288 0
-325 -1557 0
-326 -1558 0
-327 -1559 0
-328 -1560 0
-325 -421 0
-326 -422 0
-327 -423 0
-328 -424 0
-325 -2609 0
-326 -2610 0
-327 -2611 0
-328 -2612 0
-325 -2885 0
-326 -2886 0
-327 -2887 0
-328 -2888 0
-325 -329 0
-326 -330 0
-327 -331 0
-328 -332 0
-325 -333 0
-326 -334 0
-327 -335 0
-328 -336 0
-325 -721 0
-326 -722 0
-327 -723 0
-328 -724 0
-325 -341 0
-326 -342 0
-327 -343 0
-328 -344 0
-325 -1009 0
-326 -1010 0
-327 -1011 0
-328 -1012 0
-325 -2009 0
-326 -2010 0
-327 -2011 0
-328 -2012 0
-325 -3285 0
-326 -3286 0
-327 -3287 0
-328 -3288 0
-325 -881 0
-326 -882 0
-327 -883 0
-328 -884 0
-325 -1277 0
-326 -1278 0
-327 -1279 0
-328 -1280 0
-329 -1289 0
-330 -1290 0
-331 -1291 0
-332 -1292 0
-329 -1561 0
-330 -1562 0
-331 -1563 0
-332 -1564 0
-329 -2853 0
-330 -2854 0
-331 -2855 0
-332 -2856 0
-329 -425 0
-330 -426 0
-331 -427 0
-332 -428 0
-329 -2889 0
-330 -2890 0
-331 -2891 0
-332 -2892 0
-329 -5701 0
-330 -5702 0
-331 -5703 0
-332 -5704 0
-329 -345 0
-330 -346 0
-331 -347 0
-332 -348 0
-329 -2013 0
-330 -2014 0
-331 -2015 0
-332 -2016 0
-329 -1005 0
-330 -1006 0
-331 -1007 0
-332 -1008 0
-329 -3961 0
-330 -3962 0
-331 -3963 0
-332 -3964 0
-333 -2573 0
-334 -2574 0
-335 -2575 0
-336 -2576 0
-333 -1569 0
-334 -1570 0
-335 -1571 0
-336 -1572 0
-333 -725 0
-334 -726 0
-335 -727 0
-336 -728 0
-333 -1261 0
-334 -1262 0
-335 -1263 0
-336 -1264 0
-333 -761 0
-334 -762 0
-335 -763 0
-336 -764 0
-333 -1285 0
-334 -1286 0
-335 -1287 0
-336 -1288 0
-333 -1293 0
-334 -1294 0
-335 -1295 0
-336 -1296 0
-333 -2861 0
-334 -2862 0
-335 -2863 0
-336 -2864 0
-333 -337 0
-334 -338 0
-335 -339 0
-336 -340 0
-333 -2389 0
-334 -2390 0
-335 -2391 0
-336 -2392 0
-333 -2917 0
-334 -2918 0
-335 -2919 0
-336 -2920 0
-333 -885 0
-334 -886 0
-335 -887 0
-336 -888 0
-333 -433 0
-334 -434 0
-335 -435 0
-336 -436 0
-333 -445 0
-334 -446 0
-335 -447 0
-336 -448 0
-333 -1469 0
-334 -1470 0
-335 -1471 0
-336 -1472 0
-333 -5581 0
-334 -5582 0
-335 -5583 0
-336 -5584 0
-333 -2017 0
-334 -2018 0
-335 -2019 0
-336 -2020 0
-333 -1021 0
-334 -1022 0
-335 -1023 0
-336 -1024 0
-337 -1293 0
-338 -1294 0
-339 -1295 0
-340 -1296 0
-337 -4133 0
-338 -4134 0
-339 -4135 0
-340 -4136 0
-337 -1577 0
-338 -1578 0
-339 -1579 0
-340 -1580 0
-337 -4905 0
-338 -4906 0
-339 -4907 0
-340 -4908 0
-337 -1457 0
-338 -1458 0
-339 -1459 0
-340 -1460 0
-337 -441 0
-338 -442 0
-339 -443 0
-340 -444 0
-337 -3261 0
-338 -3262 0
-339 -3263 0
-340 -3264 0
-337 -453 0
-338 -454 0
-339 -455 0
-340 -456 0
-337 -985 0
-338 -986 0
-339 -987 0
-340 -988 0
-337 -2905 0
-338 -2906 0
-339 -2907 0
-340 -2908 0
-337 -869 0
-338 -870 0
-339 -871 0
-340 -872 0
-337 -2929 0
-338 -2930 0
-339 -2931 0
-340 -2932 0
-341 -5645 0
-342 -5646 0
-343 -5647 0
-344 -5648 0
-341 -1053 0
-342 -1054 0
-343 -1055 0
-344 -1056 0
-341 -1581 0
-342 -1582 0
-343 -1583 0
-344 -1584 0
-341 -2605 0
-342 -2606 0
-343 -2607 0
-344 -2608 0
-341 -4141 0
-342 -4142 0
-343 -4143 0
-344 -4144 0
-341 -1669 0
-342 -1670 0
-343 -1671 0
-344 -1672 0
-341 -3265 0
-342 -3266 0
-343 -3267 0
-344 -3268 0
-341 -3281 0
-342 -3282 0
-343 -3283 0
-344 -3284 0
-341 -1773 0
-342 -1774 0
-343 -1775 0
-344 -1776 0
-341 -5385 0
-342 -5386 0
-343 -5387 0
-344 -5388 0
-341 -5393 0
-342 -5394 0
-343 -5395 0
-344 -5396 0
-341 -1305 0
-342 -1306 0
-343 -1307 0
-344 -1308 0
-341 -2885 0
-342 -2886 0
-343 -2887 0
-344 -2888 0
-341 -345 0
-342 -346 0
-343 -347 0
-344 -348 0
-341 -2405 0
-342 -2406 0
-343 -2407 0
-344 -2408 0
-341 -365 0
-342 -366 0
-343 -367 0
-344 -368 0
-341 -2925 0
-342 -2926 0
-343 -2927 0
-344 -2928 0
-341 -1405 0
-342 -1406 0
-343 -1407 0
-344 -1408 0
-341 -905 0
-342 -906 0
-343 -907 0
-344 -908 0
-341 -5013 0
-342 -5014 0
-343 -5015 0
-344 -5016 0
-341 -4505 0
-342 -4506 0
-343 -4507 0
-344 -4508 0
-341 -4525 0
-342 -4526 0
-343 -4527 0
-344 -4528 0
-341 -449 0
-342 -450 0
-343 -451 0
-344 -452 0
-341 -2005 0
-342 -2006 0
-343 -2007 0
-344 -2008 0
-341 -993 0
-342 -994 0
-343 -995 0
-344 -996 0
-341 -2033 0
-342 -2034 0
-343 -2035 0
-344 -2036 0
-341 -1533 0
-342 -1534 0
-343 -1535 0
-344 -1536 0
-345 -3977 0
-346 -3978 0
-347 -3979 0
-348 -3980 0
-345 -909 0
-346 -910 0
-347 -911 0
-348 -912 0
-345 -453 0
-346 -454 0
-347 -455 0
-348 -456 0
-345 -2889 0
-346 -2890 0
-347 -2891 0
-348 -2892 0
-345 -2773 0
-346 -2774 0
-347 -2775 0
-348 -2776 0
-345 -997 0
-346 -998 0
-347 -999 0
-348 -1000 0
-345 -2929 0
-346 -2930 0
-347 -2931 0
-348 -2932 0
-345 -2037 0
-346 -2038 0
-347 -2039 0
-348 -2040 0
-349 -2433 0
-350 -2434 0
-351 -2435 0
-352 -2436 0
-349 -2053 0
-350 -2054 0
-351 -2055 0
-352 -2056 0
-349 -1037 0
-350 -1038 0
-351 -1039 0
-352 -1040 0
-349 -5389 0
-350 -5390 0
-351 -5391 0
-352 -5392 0
-349 -1689 0
-350 -1690 0
-351 -1691 0
-352 -1692 0
-349 -5661 0
-350 -5662 0
-351 -5663 0
-352 -5664 0
-349 -4513 0
-350 -4514 0
-351 -4515 0
-352 -4516 0
-349 -1065 0
-350 -1066 0
-351 -1067 0
-352 -1068 0
-349 -821 0
-350 -822 0
-351 -823 0
-352 -824 0
-349 -829 0
-350 -830 0
-351 -831 0
-352 -832 0
-349 -2021 0
-350 -2022 0
-351 -2023 0
-352 -2024 0
-349 -2921 0
-350 -2922 0
-351 -2923 0
-352 -2924 0
-349 -765 0
-350 -766 0
-351 -767 0
-352 -768 0
-353 -769 0
-354 -770 0
-355 -771 0
-356 -772 0
-353 -5385 0
-354 -5386 0
-355 -5387 0
-356 -5388 0
-353 -2445 0
-354 -2446 0
-355 -2447 0
-356 -2448 0
-353 -1433 0
-354 -1434 0
-355 -1435 0
-356 -1436 0
-353 -933 0
-354 -934 0
-355 -935 0
-356 -936 0
-353 -4525 0
-354 -4526 0
-355 -4527 0
-356 -4528 0
-353 -1081 0
-354 -1082 0
-355 -1083 0
-356 -1084 0
-353 -4933 0
-354 -4934 0
-355 -4935 0
-356 -4936 0
-353 -1113 0
-354 -1114 0
-355 -1115 0
-356 -1116 0
-353 -2033 0
-354 -2034 0
-355 -2035 0
-356 -2036 0
-357 -1545 0
-358 -1546 0
-359 -1547 0
-360 -1548 0
-357 -2061 0
-358 -2062 0
-359 -2063 0
-360 -2064 0
-357 -2077 0
-358 -2078 0
-359 -2079 0
-360 -2080 0
-357 -1065 0
-358 -1066 0
-359 -1067 0
-360 -1068 0
-357 -5677 0
-358 -5678 0
-359 -5679 0
-360 -5680 0
-357 -1601 0
-358 -1602 0
-359 -1603 0
-360 -1604 0
-357 -2201 0
-358 -2202 0
-359 -2203 0
-360 -2204 0
-357 -5405 0
-358 -5406 0
-359 -5407 0
-360 -5408 0
-357 -1829 0
-358 -1830 0
-359 -1831 0
-360 -1832 0
-357 -1321 0
-358 -1322 0
-359 -1323 0
-360 -1324 0
-357 -833 0
-358 -834 0
-359 -835 0
-360 -836 0
-357 -4941 0
-358 -4942 0
-359 -4943 0
-360 -4944 0
-357 -373 0
-358 -374 0
-359 -375 0
-360 -376 0
-357 -2941 0
-358 -2942 0
-359 -2943 0
-360 -2944 0
-357 -957 0
-358 -958 0
-359 -959 0
-360 -960 0
-357 -4545 0
-358 -4546 0
-359 -4547 0
-360 -4548 0
-357 -3049 0
-358 -3050 0
-359 -3051 0
-360 -3052 0
-357 -1009 0
-358 -1010 0
-359 -1011 0
-360 -1012 0
-361 -1553 0
-362 -1554 0
-363 -1555 0
-364 -1556 0
-361 -1557 0
-362 -1558 0
-363 -1559 0
-364 -1560 0
-361 -5689 0
-362 -5690 0
-363 -5691 0
-364 -5692 0
-361 -2633 0
-362 -2634 0
-363 -2635 0
-364 -2636 0
-361 -2217 0
-362 -2218 0
-363 -2219 0
-364 -2220 0
-361 -3313 0
-362 -3314 0
-363 -3315 0
-364 -3316 0
-361 -3341 0
-362 -3342 0
-363 -3343 0
-364 -3344 0
-361 -1329 0
-362 -1330 0
-363 -1331 0
-364 -1332 0
-361 -1341 0
-362 -1342 0
-363 -1343 0
-364 -1344 0
-361 -365 0
-362 -366 0
-363 -367 0
-364 -368 0
-361 -373 0
-362 -374 0
-363 -375 0
-364 -376 0
-361 -897 0
-362 -898 0
-363 -899 0
-364 -900 0
-361 -401 0
-362 -402 0
-363 -403 0
-364 -404 0
-361 -2965 0
-362 -2966 0
-363 -2967 0
-364 -2968 0
-361 -2461 0
-362 -2462 0
-363 -2463 0
-364 -2464 0
-361 -4537 0
-362 -4538 0
-363 -4539 0
-364 -4540 0
-361 -4033 0
-362 -4034 0
-363 -4035 0
-364 -4036 0
-361 -3057 0
-362 -3058 0
-363 -3059 0
-364 -3060 0
-365 -1041 0
-366 -1042 0
-367 -1043 0
-368 -1044 0
-365 -1557 0
-366 -1558 0
-367 -1559 0
-368 -1560 0
-365 -1561 0
-366 -1562 0
-367 -1563 0
-368 -1564 0
-365 -2093 0
-366 -2094 0
-367 -2095 0
-368 -2096 0
-365 -2609 0
-366 -2610 0
-367 -2611 0
-368 -2612 0
-365 -1077 0
-366 -1078 0
-367 -1079 0
-368 -1080 0
-365 -5717 0
-366 -5718 0
-367 -5719 0
-368 -5720 0
-365 -1137 0
-366 -1138 0
-367 -1139 0
-368 -1140 0
-365 -4305 0
-366 -4306 0
-367 -4307 0
-368 -4308 0
-365 -3297 0
-366 -3298 0
-367 -3299 0
-368 -3300 0
-365 -3317 0
-366 -3318 0
-367 -3319 0
-368 -3320 0
-365 -1333 0
-366 -1334 0
-367 -1335 0
-368 -1336 0
-365 -1345 0
-366 -1346 0
-367 -1347 0
-368 -1348 0
-365 -837 0
-366 -838 0
-367 -839 0
-368 -840 0
-365 -377 0
-366 -378 0
-367 -379 0
-368 -380 0
-365 -961 0
-366 -962 0
-367 -963 0
-368 -964 0
-365 -4037 0
-366 -4038 0
-367 -4039 0
-368 -4040 0
-365 -3061 0
-366 -3062 0
-367 -3063 0
-368 -3064 0
-369 -1565 0
-370 -1566 0
-371 -1567 0
-372 -1568 0
-369 -1101 0
-370 -1102 0
-371 -1103 0
-372 -1104 0
-369 -1141 0
-370 -1142 0
-371 -1143 0
-372 -1144 0
-369 -2221 0
-370 -2222 0
-371 -2223 0
-372 -2224 0
-369 -741 0
-370 -742 0
-371 -743 0
-372 -744 0
-369 -3301 0
-370 -3302 0
-371 -3303 0
-372 -3304 0
-369 -821 0
-370 -822 0
-371 -823 0
-372 -824 0
-369 -825 0
-370 -826 0
-371 -827 0
-372 -828 0
-369 -1337 0
-370 -1338 0
-371 -1339 0
-372 -1340 0
-369 -1845 0
-370 -1846 0
-371 -1847 0
-372 -1848 0
-369 -4969 0
-370 -4970 0
-371 -4971 0
-372 -4972 0
-369 -373 0
-370 -374 0
-371 -375 0
-372 -376 0
-369 -905 0
-370 -906 0
-371 -907 0
-372 -908 0
-369 -2969 0
-370 -2970 0
-371 -2971 0
-372 -2972 0
-369 -2465 0
-370 -2466 0
-371 -2467 0
-372 -2468 0
-369 -4013 0
-370 -4014 0
-371 -4015 0
-372 -4016 0
-369 -5053 0
-370 -5054 0
-371 -5055 0
-372 -5056 0
-369 -4565 0
-370 -4566 0
-371 -4567 0
-372 -4568 0
-369 -485 0
-370 -486 0
-371 -487 0
-372 -488 0
-373 -1045 0
-374 -1046 0
-375 -1047 0
-376 -1048 0
-373 -1565 0
-374 -1566 0
-375 -1567 0
-376 -1568 0
-373 -1569 0
-374 -1570 0
-375 -1571 0
-376 -1572 0
-373 -2597 0
-374 -2598 0
-375 -2599 0
-376 -2600 0
-373 -2101 0
-374 -2102 0
-375 -2103 0
-376 -2104 0
-373 -1093 0
-374 -1094 0
-375 -1095 0
-376 -1096 0
-373 -2225 0
-374 -2226 0
-375 -2227 0
-376 -2228 0
-373 -2805 0
-374 -2806 0
-375 -2807 0
-376 -2808 0
-373 -5401 0
-374 -5402 0
-375 -5403 0
-376 -5404 0
-373 -1849 0
-374 -1850 0
-375 -1851 0
-376 -1852 0
-373 -1341 0
-374 -1342 0
-375 -1343 0
-376 -1344 0
-373 -1353 0
-374 -1354 0
-375 -1355 0
-376 -1356 0
-373 -4961 0
-374 -4962 0
-375 -4963 0
-376 -4964 0
-373 -1381 0
-374 -1382 0
-375 -1383 0
-376 -1384 0
-373 -377 0
-374 -378 0
-375 -379 0
-376 -380 0
-373 -909 0
-374 -910 0
-375 -911 0
-376 -912 0
-373 -2973 0
-374 -2974 0
-375 -2975 0
-376 -2976 0
-373 -4541 0
-374 -4542 0
-375 -4543 0
-376 -4544 0
-377 -2573 0
-378 -2574 0
-379 -2575 0
-380 -2576 0
-377 -1569 0
-378 -1570 0
-379 -1571 0
-380 -1572 0
-377 -1573 0
-378 -1574 0
-379 -1575 0
-380 -1576 0
-377 -2469 0
-378 -2470 0
-379 -2471 0
-380 -2472 0
-377 -2229 0
-378 -2230 0
-379 -2231 0
-380 -2232 0
-377 -1085 0
-378 -1086 0
-379 -1087 0
-380 -1088 0
-377 -1345 0
-378 -1346 0
-379 -1347 0
-380 -1348 0
-377 -1357 0
-378 -1358 0
-379 -1359 0
-380 -1360 0
-377 -2637 0
-378 -2638 0
-379 -2639 0
-380 -2640 0
-377 -4045 0
-378 -4046 0
-379 -4047 0
-380 -4048 0
-381 -4233 0
-382 -4234 0
-383 -4235 0
-384 -4236 0
-381 -1065 0
-382 -1066 0
-383 -1067 0
-384 -1068 0
-381 -5421 0
-382 -5422 0
-383 -5423 0
-384 -5424 0
-381 -5169 0
-382 -5170 0
-383 -5171 0
-384 -5172 0
-381 -3137 0
-382 -3138 0
-383 -3139 0
-384 -3140 0
-381 -453 0
-382 -454 0
-383 -455 0
-384 -456 0
-381 -2121 0
-382 -2122 0
-383 -2123 0
-384 -2124 0
-381 -4077 0
-382 -4078 0
-383 -4079 0
-384 -4080 0
-381 -5745 0
-382 -5746 0
-383 -5747 0
-384 -5748 0
-385 -1177 0
-386 -1178 0
-387 -1179 0
-388 -1180 0
-385 -853 0
-386 -854 0
-387 -855 0
-388 -856 0
-385 -3037 0
-386 -3038 0
-387 -3039 0
-388 -3040 0
-385 -2025 0
-386 -2026 0
-387 -2027 0
-388 -2028 0
-389 -393 0
-390 -394 0
-391 -395 0
-392 -396 0
-389 -425 0
-390 -426 0
-391 -427 0
-392 -428 0
-389 -3037 0
-390 -3038 0
-391 -3039 0
-392 -3040 0
-389 -3013 0
-390 -3014 0
-391 -3015 0
-392 -3016 0
-389 -1501 0
-390 -1502 0
-391 -1503 0
-392 -1504 0
-389 -1645 0
-390 -1646 0
-391 -1647 0
-392 -1648 0
-389 -3441 0
-390 -3442 0
-391 -3443 0
-392 -3444 0
-389 -765 0
-390 -766 0
-391 -767 0
-392 -768 0
-393 -1021 0
-394 -1022 0
-395 -1023 0
-396 -1024 0
-393 -785 0
-394 -786 0
-395 -787 0
-396 -788 0
-393 -3057 0
-394 -3058 0
-395 -3059 0
-396 -3060 0
-393 -1193 0
-394 -1194 0
-395 -1195 0
-396 -1196 0
-393 -957 0
-394 -958 0
-395 -959 0
-396 -960 0
-393 -2493 0
-394 -2494 0
-395 -2495 0
-396 -2496 0
-393 -453 0
-394 -454 0
-395 -455 0
-396 -456 0
-393 -2645 0
-394 -2646 0
-395 -2647 0
-396 -2648 0
-393 -3037 0
-394 -3038 0
-395 -3039 0
-396 -3040 0
-393 -1385 0
-394 -1386 0
-395 -1387 0
-396 -1388 0
-393 -1133 0
-394 -1134 0
-395 -1135 0
-396 -1136 0
-393 -753 0
-394 -754 0
-395 -755 0
-396 -756 0
-393 -1653 0
-394 -1654 0
-395 -1655 0
-396 -1656 0
-393 -5625 0
-394 -5626 0
-395 -5627 0
-396 -5628 0
-393 -509 0
-394 -510 0
-395 -511 0
-396 -512 0
-397 -3465 0
-398 -3466 0
-399 -3467 0
-400 -3468 0
-397 -1829 0
-398 -1830 0
-399 -1831 0
-400 -1832 0
-397 -3621 0
-398 -3622 0
-399 -3623 0
-400 -3624 0
-397 -961 0
-398 -962 0
-399 -963 0
-400 -964 0
-397 -869 0
-398 -870 0
-399 -871 0
-400 -872 0
-397 -761 0
-398 -762 0
-399 -763 0
-400 -764 0
-397 -1657 0
-398 -1658 0
-399 -1659 0
-400 -1660 0
-397 -2941 0
-398 -2942 0
-399 -2943 0
-400 -2944 0
-401 -1157 0
-402 -1158 0
-403 -1159 0
-404 -1160 0
-401 -1041 0
-402 -1042 0
-403 -1043 0
-404 -1044 0
-401 -2325 0
-402 -2326 0
-403 -2327 0
-404 -2328 0
-401 -413 0
-402 -414 0
-403 -415 0
-404 -416 0
-401 -933 0
-402 -934 0
-403 -935 0
-404 -936 0
-401 -1201 0
-402 -1202 0
-403 -1203 0
-404 -1204 0
-401 -5045 0
-402 -5046 0
-403 -5047 0
-404 -5048 0
-401 -1233 0
-402 -1234 0
-403 -1235 0
-404 -1236 0
-401 -4305 0
-402 -4306 0
-403 -4307 0
-404 -4308 0
-401 -5717 0
-402 -5718 0
-403 -5719 0
-404 -5720 0
-401 -861 0
-402 -862 0
-403 -863 0
-404 -864 0
-401 -873 0
-402 -874 0
-403 -875 0
-404 -876 0
-405 -3073 0
-406 -3074 0
-407 -3075 0
-408 -3076 0
-405 -3461 0
-406 -3462 0
-407 -3463 0
-408 -3464 0
-405 -5637 0
-406 -5638 0
-407 -5639 0
-408 -5640 0
-405 -5645 0
-406 -5646 0
-407 -5647 0
-408 -5648 0
-405 -2709 0
-406 -2710 0
-407 -2711 0
-408 -2712 0
-405 -3093 0
-406 -3094 0
-407 -3095 0
-408 -3096 0
-405 -425 0
-406 -426 0
-407 -427 0
-408 -428 0
-405 -3261 0
-406 -3262 0
-407 -3263 0
-408 -3264 0
-405 -1137 0
-406 -1138 0
-407 -1139 0
-408 -1140 0
-405 -1121 0
-406 -1122 0
-407 -1123 0
-408 -1124 0
-405 -1009 0
-406 -1010 0
-407 -1011 0
-408 -1012 0
-409 -525 0
-410 -526 0
-411 -527 0
-412 -528 0
-409 -2713 0
-410 -2714 0
-411 -2715 0
-412 -2716 0
-409 -2209 0
-410 -2210 0
-411 -2211 0
-412 -2212 0
-409 -3117 0
-410 -3118 0
-411 -3119 0
-412 -3120 0
-409 -433 0
-410 -434 0
-411 -435 0
-412 -436 0
-409 -1205 0
-410 -1206 0
-411 -1207 0
-412 -1208 0
-409 -5045 0
-410 -5046 0
-411 -5047 0
-412 -5048 0
-409 -2653 0
-410 -2654 0
-411 -2655 0
-412 -2656 0
-409 -881 0
-410 -882 0
-411 -883 0
-412 -884 0
-409 -1397 0
-410 -1398 0
-411 -1399 0
-412 -1400 0
-409 -1017 0
-410 -1018 0
-411 -1019 0
-412 -1020 0
-413 -1633 0
-414 -1634 0
-415 -1635 0
-416 -1636 0
-413 -2197 0
-414 -2198 0
-415 -2199 0
-416 -2200 0
-413 -3745 0
-414 -3746 0
-415 -3747 0
-416 -3748 0
-413 -5933 0
-414 -5934 0
-415 -5935 0
-416 -5936 0
-413 -3129 0
-414 -3130 0
-415 -3131 0
-416 -3132 0
-413 -5049 0
-414 -5050 0
-415 -5051 0
-416 -5052 0
-413 -3777 0
-414 -3778 0
-415 -3779 0
-416 -3780 0
-413 -5061 0
-414 -5062 0
-415 -5063 0
-416 -5064 0
-413 -1625 0
-414 -1626 0
-415 -1627 0
-416 -1628 0
-413 -6109 0
-414 -6110 0
-415 -6111 0
-416 -6112 0
-413 -1121 0
-414 -1122 0
-415 -1123 0
-416 -1124 0
-413 -3453 0
-414 -3454 0
-415 -3455 0
-416 -3456 0
-417 -3081 0
-418 -3082 0
-419 -3083 0
-420 -3084 0
-417 -1177 0
-418 -1178 0
-419 -1179 0
-420 -1180 0
-417 -425 0
-418 -426 0
-419 -427 0
-420 -428 0
-417 -3117 0
-418 -3118 0
-419 -3119 0
-420 -3120 0
-417 -2225 0
-418 -2226 0
-419 -2227 0
-420 -2228 0
-417 -445 0
-418 -446 0
-419 -447 0
-420 -448 0
-417 -4173 0
-418 -4174 0
-419 -4175 0
-420 -4176 0
-417 -4317 0
-418 -4318 0
-419 -4319 0
-420 -4320 0
-417 -2665 0
-418 -2666 0
-419 -2667 0
-420 -2668 0
-417 -493 0
-418 -494 0
-419 -495 0
-420 -496 0
-417 -1405 0
-418 -1406 0
-419 -1407 0
-420 -1408 0
-421 -4621 0
-422 -4622 0
-423 -4623 0
-424 -4624 0
-421 -3089 0
-422 -3090 0
-423 -3091 0
-424 -3092 0
-421 -5137 0
-422 -5138 0
-423 -5139 0
-424 -5140 0
-421 -1049 0
-422 -1050 0
-423 -1051 0
-424 -1052 0
-421 -5661 0
-422 -5662 0
-423 -5663 0
-424 -5664 0
-421 -3129 0
-422 -3130 0
-423 -3131 0
-424 -3132 0
-421 -1633 0
-422 -1634 0
-423 -1635 0
-424 -1636 0
-421 -5729 0
-422 -5730 0
-423 -5731 0
-424 -5732 0
-421 -1641 0
-422 -1642 0
-423 -1643 0
-424 -1644 0
-421 -2673 0
-422 -2674 0
-423 -2675 0
-424 -2676 0
-421 -1693 0
-422 -1694 0
-423 -1695 0
-424 -1696 0
-421 -2725 0
-422 -2726 0
-423 -2727 0
-424 -2728 0
-421 -4781 0
-422 -4782 0
-423 -4783 0
-424 -4784 0
-421 -2233 0
-422 -2234 0
-423 -2235 0
-424 -2236 0
-421 -1241 0
-422 -1242 0
-423 -1243 0
-424 -1244 0
-421 -4329 0
-422 -4330 0
-423 -4331 0
-424 -4332 0
-421 -1881 0
-422 -1882 0
-423 -1883 0
-424 -1884 0
-421 -893 0
-422 -894 0
-423 -895 0
-424 -896 0
-421 -1409 0
-422 -1410 0
-423 -1411 0
-424 -1412 0
-421 -909 0
-422 -910 0
-423 -911 0
-424 -912 0
-421 -425 0
-422 -426 0
-423 -427 0
-424 -428 0
-421 -433 0
-422 -434 0
-423 -435 0
-424 -436 0
-421 -449 0
-422 -450 0
-423 -451 0
-424 -452 0
-421 -1477 0
-422 -1478 0
-423 -1479 0
-424 -1480 0
-421 -5061 0
-422 -5062 0
-423 -5063 0
-424 -5064 0
-421 -5073 0
-422 -5074 0
-423 -5075 0
-424 -5076 0
-421 -473 0
-422 -474 0
-423 -475 0
-424 -476 0
-421 -2009 0
-422 -2010 0
-423 -2011 0
-424 -2012 0
-421 -1509 0
-422 -1510 0
-423 -1511 0
-424 -1512 0
-421 -1513 0
-422 -1514 0
-423 -1515 0
-424 -1516 0
-425 -3093 0
-426 -3094 0
-427 -3095 0
-428 -3096 0
-425 -541 0
-426 -542 0
-427 -543 0
-428 -544 0
-425 -1053 0
-426 -1054 0
-427 -1055 0
-428 -1056 0
-425 -553 0
-426 -554 0
-427 -555 0
-428 -556 0
-425 -3133 0
-426 -3134 0
-427 -3135 0
-428 -3136 0
-425 -5665 0
-426 -5666 0
-427 -5667 0
-428 -5668 0
-425 -3157 0
-426 -3158 0
-427 -3159 0
-428 -3160 0
-425 -4185 0
-426 -4186 0
-427 -4187 0
-428 -4188 0
-425 -1633 0
-426 -1634 0
-427 -1635 0
-428 -1636 0
-425 -1637 0
-426 -1638 0
-427 -1639 0
-428 -1640 0
-425 -1141 0
-426 -1142 0
-427 -1143 0
-428 -1144 0
-425 -633 0
-426 -634 0
-427 -635 0
-428 -636 0
-425 -1149 0
-426 -1150 0
-427 -1151 0
-428 -1152 0
-425 -2697 0
-426 -2698 0
-427 -2699 0
-428 -2700 0
-425 -2201 0
-426 -2202 0
-427 -2203 0
-428 -2204 0
-425 -1181 0
-426 -1182 0
-427 -1183 0
-428 -1184 0
-425 -1189 0
-426 -1190 0
-427 -1191 0
-428 -1192 0
-425 -1697 0
-426 -1698 0
-427 -1699 0
-428 -1700 0
-425 -4777 0
-426 -4778 0
-427 -4779 0
-428 -4780 0
-425 -4785 0
-426 -4786 0
-427 -4787 0
-428 -4788 0
-425 -1205 0
-426 -1206 0
-427 -1207 0
-428 -1208 0
-425 -2237 0
-426 -2238 0
-427 -2239 0
-428 -2240 0
-425 -1245 0
-426 -1246 0
-427 -1247 0
-428 -1248 0
-425 -765 0
-426 -766 0
-427 -767 0
-428 -768 0
-425 -769 0
-426 -770 0
-427 -771 0
-428 -772 0
-425 -5653 0
-426 -5654 0
-427 -5655 0
-428 -5656 0
-425 -813 0
-426 -814 0
-427 -815 0
-428 -816 0
-425 -1405 0
-426 -1406 0
-427 -1407 0
-428 -1408 0
-425 -897 0
-426 -898 0
-427 -899 0
-428 -900 0
-425 -1413 0
-426 -1414 0
-427 -1415 0
-428 -1416 0
-425 -2013 0
-426 -2014 0
-427 -2015 0
-428 -2016 0
-425 -429 0
-426 -430 0
-427 -431 0
-428 -432 0
-425 -437 0
-426 -438 0
-427 -439 0
-428 -440 0
-425 -949 0
-426 -950 0
-427 -951 0
-428 -952 0
-425 -453 0
-426 -454 0
-427 -455 0
-428 -456 0
-425 -5065 0
-426 -5066 0
-427 -5067 0
-428 -5068 0
-425 -973 0
-426 -974 0
-427 -975 0
-428 -976 0
-425 -477 0
-426 -478 0
-427 -479 0
-428 -480 0
-425 -1001 0
-426 -1002 0
-427 -1003 0
-428 -1004 0
-429 -3457 0
-430 -3458 0
-431 -3459 0
-432 -3460 0
-429 -3097 0
-430 -3098 0
-431 -3099 0
-432 -3100 0
-429 -545 0
-430 -546 0
-431 -547 0
-432 -548 0
-429 -1185 0
-430 -1186 0
-431 -1187 0
-432 -1188 0
-429 -1193 0
-430 -1194 0
-431 -1195 0
-432 -1196 0
-429 -2729 0
-430 -2730 0
-431 -2731 0
-432 -2732 0
-429 -3137 0
-430 -3138 0
-431 -3139 0
-432 -3140 0
-429 -457 0
-430 -458 0
-431 -459 0
-432 -460 0
-429 -1637 0
-430 -1638 0
-431 -1639 0
-432 -1640 0
-429 -4333 0
-430 -4334 0
-431 -4335 0
-432 -4336 0
-433 -1041 0
-434 -1042 0
-435 -1043 0
-436 -1044 0
-433 -549 0
-434 -550 0
-435 -551 0
-436 -552 0
-433 -5669 0
-434 -5670 0
-435 -5671 0
-436 -5672 0
-433 -557 0
-434 -558 0
-435 -559 0
-436 -560 0
-433 -3141 0
-434 -3142 0
-435 -3143 0
-436 -3144 0
-433 -3161 0
-434 -3162 0
-435 -3163 0
-436 -3164 0
-433 -2205 0
-434 -2206 0
-435 -2207 0
-436 -2208 0
-433 -1701 0
-434 -1702 0
-435 -1703 0
-436 -1704 0
-433 -1209 0
-434 -1210 0
-435 -1211 0
-436 -1212 0
-433 -3789 0
-434 -3790 0
-435 -3791 0
-436 -3792 0
-433 -777 0
-434 -778 0
-435 -779 0
-436 -780 0
-433 -2333 0
-434 -2334 0
-435 -2335 0
-436 -2336 0
-433 -877 0
-434 -878 0
-435 -879 0
-436 -880 0
-433 -1409 0
-434 -1410 0
-435 -1411 0
-436 -1412 0
-433 -905 0
-434 -906 0
-435 -907 0
-436 -908 0
-433 -437 0
-434 -438 0
-435 -439 0
-436 -440 0
-433 -441 0
-434 -442 0
-435 -443 0
-436 -444 0
-433 -5077 0
-434 -5078 0
-435 -5079 0
-436 -5080 0
-433 -2017 0
-434 -2018 0
-435 -2019 0
-436 -2020 0
-437 -1413 0
-438 -1414 0
-439 -1415 0
-440 -1416 0
-437 -3461 0
-438 -3462 0
-439 -3463 0
-440 -3464 0
-437 -909 0
-438 -910 0
-439 -911 0
-440 -912 0
-437 -3101 0
-438 -3102 0
-439 -3103 0
-440 -3104 0
-437 -1197 0
-438 -1198 0
-439 -1199 0
-440 -1200 0
-437 -817 0
-438 -818 0
-439 -819 0
-440 -820 0
-437 -1213 0
-438 -1214 0
-439 -1215 0
-440 -1216 0
-437 -2245 0
-438 -2246 0
-439 -2247 0
-440 -2248 0
-437 -461 0
-438 -462 0
-439 -463 0
-440 -464 0
-437 -3145 0
-438 -3146 0
-439 -3147 0
-440 -3148 0
-437 -1249 0
-438 -1250 0
-439 -1251 0
-440 -1252 0
-437 -1513 0
-438 -1514 0
-439 -1515 0
-440 -1516 0
-437 -1137 0
-438 -1138 0
-439 -1139 0
-440 -1140 0
-441 -773 0
-442 -774 0
-443 -775 0
-444 -776 0
-441 -913 0
-442 -914 0
-443 -915 0
-444 -916 0
-441 -537 0
-442 -538 0
-443 -539 0
-444 -540 0
-441 -2209 0
-442 -2210 0
-443 -2211 0
-444 -2212 0
-441 -3105 0
-442 -3106 0
-443 -3107 0
-444 -3108 0
-441 -561 0
-442 -562 0
-443 -563 0
-444 -564 0
-441 -569 0
-442 -570 0
-443 -571 0
-444 -572 0
-441 -2249 0
-442 -2250 0
-443 -2251 0
-444 -2252 0
-441 -465 0
-442 -466 0
-443 -467 0
-444 -468 0
-441 -3797 0
-442 -3798 0
-443 -3799 0
-444 -3800 0
-441 -3169 0
-442 -3170 0
-443 -3171 0
-444 -3172 0
-441 -1649 0
-442 -1650 0
-443 -1651 0
-444 -1652 0
-445 -5669 0
-446 -5670 0
-447 -5671 0
-448 -5672 0
-445 -557 0
-446 -558 0
-447 -559 0
-448 -560 0
-445 -3117 0
-446 -3118 0
-447 -3119 0
-448 -3120 0
-445 -2625 0
-446 -2626 0
-447 -2627 0
-448 -2628 0
-445 -4169 0
-446 -4170 0
-447 -4171 0
-448 -4172 0
-445 -3161 0
-446 -3162 0
-447 -3163 0
-448 -3164 0
-445 -1185 0
-446 -1186 0
-447 -1187 0
-448 -1188 0
-445 -2217 0
-446 -2218 0
-447 -2219 0
-448 -2220 0
-445 -1709 0
-446 -1710 0
-447 -1711 0
-448 -1712 0
-445 -4349 0
-446 -4350 0
-447 -4351 0
-448 -4352 0
-445 -781 0
-446 -782 0
-447 -783 0
-448 -784 0
-445 -789 0
-446 -790 0
-447 -791 0
-448 -792 0
-445 -1417 0
-446 -1418 0
-447 -1419 0
-448 -1420 0
-445 -1421 0
-446 -1422 0
-447 -1423 0
-448 -1424 0
-445 -1453 0
-446 -1454 0
-447 -1455 0
-448 -1456 0
-445 -3505 0
-446 -3506 0
-447 -3507 0
-448 -3508 0
-445 -453 0
-446 -454 0
-447 -455 0
-448 -456 0
-445 -5081 0
-446 -5082 0
-447 -5083 0
-448 -5084 0
-449 -1065 0
-450 -1066 0
-451 -1067 0
-452 -1068 0
-449 -5169 0
-450 -5170 0
-451 -5171 0
-452 -5172 0
-449 -3129 0
-450 -3130 0
-451 -3131 0
-452 -3132 0
-449 -2633 0
-450 -2634 0
-451 -2635 0
-452 -2636 0
-449 -4177 0
-450 -4178 0
-451 -4179 0
-452 -4180 0
-449 -3165 0
-450 -3166 0
-451 -3167 0
-452 -3168 0
-449 -1645 0
-450 -1646 0
-451 -1647 0
-452 -1648 0
-449 -3697 0
-450 -3698 0
-451 -3699 0
-452 -3700 0
-449 -5745 0
-450 -5746 0
-451 -5747 0
-452 -5748 0
-449 -1165 0
-450 -1166 0
-451 -1167 0
-452 -1168 0
-449 -4757 0
-450 -4758 0
-451 -4759 0
-452 -4760 0
-449 -2221 0
-450 -2222 0
-451 -2223 0
-452 -2224 0
-449 -2257 0
-450 -2258 0
-451 -2259 0
-452 -2260 0
-449 -1253 0
-450 -1254 0
-451 -1255 0
-452 -1256 0
-449 -2341 0
-450 -2342 0
-451 -2343 0
-452 -2344 0
-449 -829 0
-450 -830 0
-451 -831 0
-452 -832 0
-449 -885 0
-450 -886 0
-451 -887 0
-452 -888 0
-449 -3485 0
-450 -3486 0
-451 -3487 0
-452 -3488 0
-449 -453 0
-450 -454 0
-451 -455 0
-452 -456 0
-449 -5069 0
-450 -5070 0
-451 -5071 0
-452 -5072 0
-449 -2033 0
-450 -2034 0
-451 -2035 0
-452 -2036 0
-453 -5089 0
-454 -5090 0
-455 -5091 0
-456 -5092 0
-453 -2037 0
-454 -2038 0
-455 -2039 0
-456 -2040 0
-453 -561 0
-454 -562 0
-455 -563 0
-456 -564 0
-453 -1069 0
-454 -1070 0
-455 -1071 0
-456 -1072 0
-453 -569 0
-454 -570 0
-455 -571 0
-456 -572 0
-453 -3133 0
-454 -3134 0
-455 -3135 0
-456 -3136 0
-453 -5173 0
-454 -5174 0
-455 -5175 0
-456 -5176 0
-453 -4181 0
-454 -4182 0
-455 -4183 0
-456 -4184 0
-453 -3169 0
-454 -3170 0
-455 -3171 0
-456 -3172 0
-453 -1645 0
-454 -1646 0
-455 -1647 0
-456 -1648 0
-453 -1649 0
-454 -1650 0
-455 -1651 0
-456 -1652 0
-453 -3185 0
-454 -3186 0
-455 -3187 0
-456 -3188 0
-453 -1153 0
-454 -1154 0
-455 -1155 0
-456 -1156 0
-453 -5749 0
-454 -5750 0
-455 -5751 0
-456 -5752 0
-453 -1177 0
-454 -1178 0
-455 -1179 0
-456 -1180 0
-453 -5801 0
-454 -5802 0
-455 -5803 0
-456 -5804 0
-453 -1201 0
-454 -1202 0
-455 -1203 0
-456 -1204 0
-453 -1713 0
-454 -1714 0
-455 -1715 0
-456 -1716 0
-453 -1209 0
-454 -1210 0
-455 -1211 0
-456 -1212 0
-453 -2225 0
-454 -2226 0
-455 -2227 0
-456 -2228 0
-453 -2261 0
-454 -2262 0
-455 -2263 0
-456 -2264 0
-453 -1257 0
-454 -1258 0
-455 -1259 0
-456 -1260 0
-453 -4357 0
-454 -4358 0
-455 -4359 0
-456 -4360 0
-453 -785 0
-454 -786 0
-455 -787 0
-456 -788 0
-453 -797 0
-454 -798 0
-455 -799 0
-456 -800 0
-453 -821 0
-454 -822 0
-455 -823 0
-456 -824 0
-453 -833 0
-454 -834 0
-455 -835 0
-456 -836 0
-453 -1421 0
-454 -1422 0
-455 -1423 0
-456 -1424 0
-453 -921 0
-454 -922 0
-455 -923 0
-456 -924 0
-453 -1433 0
-454 -1434 0
-455 -1435 0
-456 -1436 0
-453 -2989 0
-454 -2990 0
-455 -2991 0
-456 -2992 0
-453 -965 0
-454 -966 0
-455 -967 0
-456 -968 0
-453 -457 0
-454 -458 0
-455 -459 0
-456 -460 0
-453 -461 0
-454 -462 0
-455 -463 0
-456 -464 0
-453 -469 0
-454 -470 0
-455 -471 0
-456 -472 0
-453 -481 0
-454 -482 0
-455 -483 0
-456 -484 0
-453 -1013 0
-454 -1014 0
-455 -1015 0
-456 -1016 0
-457 -4361 0
-458 -4362 0
-459 -4363 0
-460 -4364 0
-457 -1425 0
-458 -1426 0
-459 -1427 0
-460 -1428 0
-457 -789 0
-458 -790 0
-459 -791 0
-460 -792 0
-457 -1073 0
-458 -1074 0
-459 -1075 0
-460 -1076 0
-457 -565 0
-458 -566 0
-459 -567 0
-460 -568 0
-457 -2229 0
-458 -2230 0
-459 -2231 0
-460 -2232 0
-457 -1213 0
-458 -1214 0
-459 -1215 0
-460 -1216 0
-457 -3137 0
-458 -3138 0
-459 -3139 0
-460 -3140 0
-457 -981 0
-458 -982 0
-459 -983 0
-460 -984 0
-457 -3173 0
-458 -3174 0
-459 -3175 0
-460 -3176 0
-457 -1649 0
-458 -1650 0
-459 -1651 0
-460 -1652 0
-461 -1029 0
-462 -1030 0
-463 -1031 0
-464 -1032 0
-461 -1161 0
-462 -1162 0
-463 -1163 0
-464 -1164 0
-461 -1149 0
-462 -1150 0
-463 -1151 0
-464 -1152 0
-461 -1433 0
-462 -1434 0
-463 -1435 0
-464 -1436 0
-461 -4369 0
-462 -4370 0
-463 -4371 0
-464 -4372 0
-461 -1081 0
-462 -1082 0
-463 -1083 0
-464 -1084 0
-461 -2237 0
-462 -2238 0
-463 -2239 0
-464 -2240 0
-461 -2357 0
-462 -2358 0
-463 -2359 0
-464 -2360 0
-461 -3145 0
-462 -3146 0
-463 -3147 0
-464 -3148 0
-461 -2637 0
-462 -2638 0
-463 -2639 0
-464 -2640 0
-461 -4201 0
-462 -4202 0
-463 -4203 0
-464 -4204 0
-461 -3181 0
-462 -3182 0
-463 -3183 0
-464 -3184 0
-465 -1033 0
-466 -1034 0
-467 -1035 0
-468 -1036 0
-465 -1437 0
-466 -1438 0
-467 -1439 0
-468 -1440 0
-465 -801 0
-466 -802 0
-467 -803 0
-468 -804 0
-465 -933 0
-466 -934 0
-467 -935 0
-468 -936 0
-465 -1085 0
-466 -1086 0
-467 -1087 0
-468 -1088 0
-465 -2361 0
-466 -2362 0
-467 -2363 0
-468 -2364 0
-465 -3189 0
-466 -3190 0
-467 -3191 0
-468 -3192 0
-469 -5777 0
-470 -5778 0
-471 -5779 0
-472 -5780 0
-469 -2717 0
-470 -2718 0
-471 -2719 0
-472 -2720 0
-469 -1185 0
-470 -1186 0
-471 -1187 0
-472 -1188 0
-469 -805 0
-470 -806 0
-471 -807 0
-472 -808 0
-469 -3189 0
-470 -3190 0
-471 -3191 0
-472 -3192 0
-469 -3505 0
-470 -3506 0
-471 -3507 0
-472 -3508 0
-469 -1225 0
-470 -1226 0
-471 -1227 0
-472 -1228 0
-469 -2645 0
-470 -2646 0
-471 -2647 0
-472 -2648 0
-469 -3169 0
-470 -3170 0
-471 -3171 0
-472 -3172 0
-469 -5101 0
-470 -5102 0
-471 -5103 0
-472 -5104 0
-469 -1265 0
-470 -1266 0
-471 -1267 0
-472 -1268 0
-469 -1653 0
-470 -1654 0
-471 -1655 0
-472 -1656 0
-473 -585 0
-474 -586 0
-475 -587 0
-476 -588 0
-473 -5197 0
-474 -5198 0
-475 -5199 0
-476 -5200 0
-473 -3197 0
-474 -3198 0
-475 -3199 0
-476 -3200 0
-473 -2705 0
-474 -2706 0
-475 -2707 0
-476 -2708 0
-473 -1685 0
-474 -1686 0
-475 -1687 0
-476 -1688 0
-473 -3217 0
-474 -3218 0
-475 -3219 0
-476 -3220 0
-473 -5265 0
-474 -5266 0
-475 -5267 0
-476 -5268 0
-473 -1201 0
-474 -1202 0
-475 -1203 0
-476 -1204 0
-473 -1217 0
-474 -1218 0
-475 -1219 0
-476 -1220 0
-473 -1733 0
-474 -1734 0
-475 -1735 0
-476 -1736 0
-473 -2273 0
-474 -2274 0
-475 -2275 0
-476 -2276 0
-473 -1285 0
-474 -1286 0
-475 -1287 0
-476 -1288 0
-473 -817 0
-474 -818 0
-475 -819 0
-476 -820 0
-473 -1957 0
-474 -1958 0
-475 -1959 0
-476 -1960 0
-473 -3509 0
-474 -3510 0
-475 -3511 0
-476 -3512 0
-473 -3533 0
-474 -3534 0
-475 -3535 0
-476 -3536 0
-473 -477 0
-474 -478 0
-475 -479 0
-476 -480 0
-473 -993 0
-474 -994 0
-475 -995 0
-476 -996 0
-473 -1525 0
-474 -1526 0
-475 -1527 0
-476 -1528 0
-477 -3201 0
-478 -3202 0
-479 -3203 0
-480 -3204 0
-477 -649 0
-478 -650 0
-479 -651 0
-480 -652 0
-477 -1673 0
-478 -1674 0
-479 -1675 0
-480 -1676 0
-477 -4241 0
-478 -4242 0
-479 -4243 0
-480 -4244 0
-477 -2709 0
-478 -2710 0
-479 -2711 0
-480 -2712 0
-477 -3221 0
-478 -3222 0
-479 -3223 0
-480 -3224 0
-477 -5789 0
-478 -5790 0
-479 -5791 0
-480 -5792 0
-477 -5817 0
-478 -5818 0
-479 -5819 0
-480 -5820 0
-477 -4801 0
-478 -4802 0
-479 -4803 0
-480 -4804 0
-477 -1737 0
-478 -1738 0
-479 -1739 0
-480 -1740 0
-477 -1289 0
-478 -1290 0
-479 -1291 0
-480 -1292 0
-477 -813 0
-478 -814 0
-479 -815 0
-480 -816 0
-477 -953 0
-478 -954 0
-479 -955 0
-480 -956 0
-477 -3513 0
-478 -3514 0
-479 -3515 0
-480 -3516 0
-477 -481 0
-478 -482 0
-479 -483 0
-480 -484 0
-477 -505 0
-478 -506 0
-479 -507 0
-480 -508 0
-481 -3221 0
-482 -3222 0
-483 -3223 0
-484 -3224 0
-481 -1697 0
-482 -1698 0
-483 -1699 0
-484 -1700 0
-481 -4261 0
-482 -4262 0
-483 -4263 0
-484 -4264 0
-481 -3245 0
-482 -3246 0
-483 -3247 0
-484 -3248 0
-481 -821 0
-482 -822 0
-483 -823 0
-484 -824 0
-481 -949 0
-482 -950 0
-483 -951 0
-484 -952 0
-481 -4441 0
-482 -4442 0
-483 -4443 0
-484 -4444 0
-485 -4241 0
-486 -4242 0
-487 -4243 0
-488 -4244 0
-485 -1309 0
-486 -1310 0
-487 -1311 0
-488 -1312 0
-485 -3877 0
-486 -3878 0
-487 -3879 0
-488 -3880 0
-485 -1065 0
-486 -1066 0
-487 -1067 0
-488 -1068 0
-485 -1973 0
-486 -1974 0
-487 -1975 0
-488 -1976 0
-485 -2293 0
-486 -2294 0
-487 -2295 0
-488 -2296 0
-489 -6145 0
-490 -6146 0
-491 -6147 0
-492 -6148 0
-489 -2313 0
-490 -2314 0
-491 -2315 0
-492 -2316 0
-489 -2461 0
-490 -2462 0
-491 -2463 0
-492 -2464 0
-489 -1341 0
-490 -1342 0
-491 -1343 0
-492 -1344 0
-489 -1729 0
-490 -1730 0
-491 -1731 0
-492 -1732 0
-489 -1733 0
-490 -1734 0
-491 -1735 0
-492 -1736 0
-489 -1229 0
-490 -1230 0
-491 -1231 0
-492 -1232 0
-489 -3405 0
-490 -3406 0
-491 -3407 0
-492 -3408 0
-489 -5485 0
-490 -5486 0
-491 -5487 0
-492 -5488 0
-493 -1025 0
-494 -1026 0
-495 -1027 0
-496 -1028 0
-493 -1285 0
-494 -1286 0
-495 -1287 0
-496 -1288 0
-493 -3085 0
-494 -3086 0
-495 -3087 0
-496 -3088 0
-493 -3565 0
-494 -3566 0
-495 -3567 0
-496 -3568 0
-493 -5133 0
-494 -5134 0
-495 -5135 0
-496 -5136 0
-493 -1457 0
-494 -1458 0
-495 -1459 0
-496 -1460 0
-493 -1469 0
-494 -1470 0
-495 -1471 0
-496 -1472 0
-493 -841 0
-494 -842 0
-495 -843 0
-496 -844 0
-493 -849 0
-494 -850 0
-495 -851 0
-496 -852 0
-493 -1261 0
-494 -1262 0
-495 -1263 0
-496 -1264 0
-493 -885 0
-494 -886 0
-495 -887 0
-496 -888 0
-497 -1285 0
-498 -1286 0
-499 -1287 0
-500 -1288 0
-497 -1541 0
-498 -1542 0
-499 -1543 0
-500 -1544 0
-497 -2845 0
-498 -2846 0
-499 -2847 0
-500 -2848 0
-497 -1829 0
-498 -1830 0
-499 -1831 0
-500 -1832 0
-497 -5157 0
-498 -5158 0
-499 -5159 0
-500 -5160 0
-497 -3281 0
-498 -3282 0
-499 -3283 0
-500 -3284 0
-497 -853 0
-498 -854 0
-499 -855 0
-500 -856 0
-497 -3793 0
-498 -3794 0
-499 -3795 0
-500 -3796 0
-497 -3297 0
-498 -3298 0
-499 -3299 0
-500 -3300 0
-497 -1257 0
-498 -1258 0
-499 -1259 0
-500 -1260 0
-497 -885 0
-498 -886 0
-499 -887 0
-500 -888 0
-497 -765 0
-498 -766 0
-499 -767 0
-500 -768 0
-501 -905 0
-502 -906 0
-503 -907 0
-504 -908 0
-501 -781 0
-502 -782 0
-503 -783 0
-504 -784 0
-501 -1549 0
-502 -1550 0
-503 -1551 0
-504 -1552 0
-501 -537 0
-502 -538 0
-503 -539 0
-504 -540 0
-501 -1561 0
-502 -1562 0
-503 -1563 0
-504 -1564 0
-501 -4513 0
-502 -4514 0
-503 -4515 0
-504 -4516 0
-501 -1317 0
-502 -1318 0
-503 -1319 0
-504 -1320 0
-501 -2353 0
-502 -2354 0
-503 -2355 0
-504 -2356 0
-501 -597 0
-502 -598 0
-503 -599 0
-504 -600 0
-501 -857 0
-502 -858 0
-503 -859 0
-504 -860 0
-501 -3441 0
-502 -3442 0
-503 -3443 0
-504 -3444 0
-501 -1013 0
-502 -1014 0
-503 -1015 0
-504 -1016 0
-501 -2169 0
-502 -2170 0
-503 -2171 0
-504 -2172 0
-505 -1165 0
-506 -1166 0
-507 -1167 0
-508 -1168 0
-505 -4369 0
-506 -4370 0
-507 -4371 0
-508 -4372 0
-505 -805 0
-506 -806 0
-507 -807 0
-508 -808 0
-505 -933 0
-506 -934 0
-507 -935 0
-508 -936 0
-505 -1197 0
-506 -1198 0
-507 -1199 0
-508 -1200 0
-505 -1581 0
-506 -1582 0
-507 -1583 0
-508 -1584 0
-505 -565 0
-506 -566 0
-507 -567 0
-508 -568 0
-505 -1957 0
-506 -1958 0
-507 -1959 0
-508 -1960 0
-505 -2353 0
-506 -2354 0
-507 -2355 0
-508 -2356 0
-505 -5821 0
-506 -5822 0
-507 -5823 0
-508 -5824 0
-505 -709 0
-506 -710 0
-507 -711 0
-508 -712 0
-505 -1349 0
-506 -1350 0
-507 -1351 0
-508 -1352 0
-505 -5197 0
-506 -5198 0
-507 -5199 0
-508 -5200 0
-505 -1377 0
-506 -1378 0
-507 -1379 0
-508 -1380 0
-505 -869 0
-506 -870 0
-507 -871 0
-508 -872 0
-509 -517 0
-510 -518 0
-511 -519 0
-512 -520 0
-509 -1285 0
-510 -1286 0
-511 -1287 0
-512 -1288 0
-509 -3601 0
-510 -3602 0
-511 -3603 0
-512 -3604 0
-509 -2837 0
-510 -2838 0
-511 -2839 0
-512 -2840 0
-509 -4365 0
-510 -4366 0
-511 -4367 0
-512 -4368 0
-509 -4377 0
-510 -4378 0
-511 -4379 0
-512 -4380 0
-509 -1333 0
-510 -1334 0
-511 -1335 0
-512 -1336 0
-509 -569 0
-510 -570 0
-511 -571 0
-512 -572 0
-509 -961 0
-510 -962 0
-511 -963 0
-512 -964 0
-509 -2381 0
-510 -2382 0
-511 -2383 0
-512 -2384 0
-509 -5201 0
-510 -5202 0
-511 -5203 0
-512 -5204 0
-509 -873 0
-510 -874 0
-511 -875 0
-512 -876 0
-509 -3309 0
-510 -3310 0
-511 -3311 0
-512 -3312 0
-509 -1777 0
-510 -1778 0
-511 -1779 0
-512 -1780 0
-513 -517 0
-514 -518 0
-515 -519 0
-516 -520 0
-513 -3209 0
-514 -3210 0
-515 -3211 0
-516 -3212 0
-513 -2829 0
-514 -2830 0
-515 -2831 0
-516 -2832 0
-513 -2709 0
-514 -2710 0
-515 -2711 0
-516 -2712 0
-513 -3605 0
-514 -3606 0
-515 -3607 0
-516 -3608 0
-513 -2845 0
-514 -2846 0
-515 -2847 0
-516 -2848 0
-513 -4381 0
-514 -4382 0
-515 -4383 0
-516 -4384 0
-513 -1341 0
-514 -1342 0
-515 -1343 0
-516 -1344 0
-513 -1781 0
-514 -1782 0
-515 -1783 0
-516 -1784 0
-513 -1021 0
-514 -1022 0
-515 -1023 0
-516 -1024 0
-517 -1025 0
-518 -1026 0
-519 -1027 0
-520 -1028 0
-517 -3585 0
-518 -3586 0
-519 -3587 0
-520 -3588 0
-517 -1293 0
-518 -1294 0
-519 -1295 0
-520 -1296 0
-517 -3213 0
-518 -3214 0
-519 -3215 0
-520 -3216 0
-517 -1201 0
-518 -1202 0
-519 -1203 0
-520 -1204 0
-517 -1345 0
-518 -1346 0
-519 -1347 0
-520 -1348 0
-517 -2369 0
-518 -2370 0
-519 -2371 0
-520 -2372 0
-517 -5825 0
-518 -5826 0
-519 -5827 0
-520 -5828 0
-517 -1869 0
-518 -1870 0
-519 -1871 0
-520 -1872 0
-517 -3313 0
-518 -3314 0
-519 -3315 0
-520 -3316 0
-517 -1785 0
-518 -1786 0
-519 -1787 0
-520 -1788 0
-521 -1281 0
-522 -1282 0
-523 -1283 0
-524 -1284 0
-521 -3461 0
-522 -3462 0
-523 -3463 0
-524 -3464 0
-521 -525 0
-522 -526 0
-523 -527 0
-524 -528 0
-521 -3857 0
-522 -3858 0
-523 -3859 0
-524 -3860 0
-521 -537 0
-522 -538 0
-523 -539 0
-524 -540 0
-521 -4401 0
-522 -4402 0
-523 -4403 0
-524 -4404 0
-521 -4537 0
-522 -4538 0
-523 -4539 0
-524 -4540 0
-521 -589 0
-522 -590 0
-523 -591 0
-524 -592 0
-521 -593 0
-522 -594 0
-523 -595 0
-524 -596 0
-521 -2389 0
-522 -2390 0
-523 -2391 0
-524 -2392 0
-521 -5201 0
-522 -5202 0
-523 -5203 0
-524 -5204 0
-521 -1905 0
-522 -1906 0
-523 -1907 0
-524 -1908 0
-521 -881 0
-522 -882 0
-523 -883 0
-524 -884 0
-521 -2925 0
-522 -2926 0
-523 -2927 0
-524 -2928 0
-525 -2817 0
-526 -2818 0
-527 -2819 0
-528 -2820 0
-525 -1285 0
-526 -1286 0
-527 -1287 0
-528 -1288 0
-525 -3349 0
-526 -3350 0
-527 -3351 0
-528 -3352 0
-525 -1313 0
-526 -1314 0
-527 -1315 0
-528 -1316 0
-525 -1317 0
-526 -1318 0
-527 -1319 0
-528 -1320 0
-525 -4393 0
-526 -4394 0
-527 -4395 0
-528 -4396 0
-525 -2929 0
-526 -2930 0
-527 -2931 0
-528 -2932 0
-525 -757 0
-526 -758 0
-527 -759 0
-528 -760 0
-525 -1149 0
-526 -1150 0
-527 -1151 0
-528 -1152 0
-529 -1025 0
-530 -1026 0
-531 -1027 0
-532 -1028 0
-529 -2305 0
-530 -2306 0
-531 -2307 0
-532 -2308 0
-529 -1169 0
-530 -1170 0
-531 -1171 0
-532 -1172 0
-529 -1177 0
-530 -1178 0
-531 -1179 0
-532 -1180 0
-529 -1829 0
-530 -1830 0
-531 -1831 0
-532 -1832 0
-529 -2589 0
-530 -2590 0
-531 -2591 0
-532 -2592 0
-529 -3369 0
-530 -3370 0
-531 -3371 0
-532 -3372 0
-529 -1213 0
-530 -1214 0
-531 -1215 0
-532 -1216 0
-529 -5233 0
-530 -5234 0
-531 -5235 0
-532 -5236 0
-529 -3965 0
-530 -3966 0
-531 -3967 0
-532 -3968 0
-533 -1921 0
-534 -1922 0
-535 -1923 0
-536 -1924 0
-533 -905 0
-534 -906 0
-535 -907 0
-536 -908 0
-533 -2217 0
-534 -2218 0
-535 -2219 0
-536 -2220 0
-533 -2401 0
-534 -2402 0
-535 -2403 0
-536 -2404 0
-533 -613 0
-534 -614 0
-535 -615 0
-536 -616 0
-533 -5741 0
-534 -5742 0
-535 -5743 0
-536 -5744 0
-533 -4861 0
-534 -4862 0
-535 -4863 0
-536 -4864 0
-537 -545 0
-538 -546 0
-539 -547 0
-540 -548 0
-537 -577 0
-538 -578 0
-539 -579 0
-540 -580 0
-537 -617 0
-538 -618 0
-539 -619 0
-540 -620 0
-537 -5753 0
-538 -5754 0
-539 -5755 0
-540 -5756 0
-537 -5765 0
-538 -5766 0
-539 -5767 0
-540 -5768 0
-537 -1165 0
-538 -1166 0
-539 -1167 0
-540 -1168 0
-537 -2229 0
-538 -2230 0
-539 -2231 0
-540 -2232 0
-537 -777 0
-538 -778 0
-539 -779 0
-540 -780 0
-537 -1301 0
-538 -1302 0
-539 -1303 0
-540 -1304 0
-537 -1817 0
-538 -1818 0
-539 -1819 0
-540 -1820 0
-537 -1821 0
-538 -1822 0
-539 -1823 0
-540 -1824 0
-537 -1333 0
-538 -1334 0
-539 -1335 0
-540 -1336 0
-537 -3385 0
-538 -3386 0
-539 -3387 0
-540 -3388 0
-537 -2413 0
-538 -2414 0
-539 -2415 0
-540 -2416 0
-537 -905 0
-538 -906 0
-539 -907 0
-540 -908 0
-537 -961 0
-538 -962 0
-539 -963 0
-540 -964 0
-537 -4553 0
-538 -4554 0
-539 -4555 0
-540 -4556 0
-541 -2561 0
-542 -2562 0
-543 -2563 0
-544 -2564 0
-541 -3601 0
-542 -3602 0
-543 -3603 0
-544 -3604 0
-541 -545 0
-542 -546 0
-543 -547 0
-544 -548 0
-541 -561 0
-542 -562 0
-543 -563 0
-544 -564 0
-541 -1073 0
-542 -1074 0
-543 -1075 0
-544 -1076 0
-541 -1605 0
-542 -1606 0
-543 -1607 0
-544 -1608 0
-541 -5233 0
-542 -5234 0
-543 -5235 0
-544 -5236 0
-541 -5773 0
-542 -5774 0
-543 -5775 0
-544 -5776 0
-541 -2237 0
-542 -2238 0
-543 -2239 0
-544 -2240 0
-541 -3329 0
-542 -3330 0
-543 -3331 0
-544 -3332 0
-541 -4885 0
-542 -4886 0
-543 -4887 0
-544 -4888 0
-541 -2841 0
-542 -2842 0
-543 -2843 0
-544 -2844 0
-541 -1309 0
-542 -1310 0
-543 -1311 0
-544 -1312 0
-541 -1825 0
-542 -1826 0
-543 -1827 0
-544 -1828 0
-541 -1829 0
-542 -1830 0
-543 -1831 0
-544 -1832 0
-541 -3369 0
-542 -3370 0
-543 -3371 0
-544 -3372 0
-541 -1341 0
-542 -1342 0
-543 -1343 0
-544 -1344 0
-541 -2421 0
-542 -2422 0
-543 -2423 0
-544 -2424 0
-541 -5493 0
-542 -5494 0
-543 -5495 0
-544 -5496 0
-541 -1941 0
-542 -1942 0
-543 -1943 0
-544 -1944 0
-541 -4561 0
-542 -4562 0
-543 -4563 0
-544 -4564 0
-545 -565 0
-546 -566 0
-547 -567 0
-548 -568 0
-545 -1597 0
-546 -1598 0
-547 -1599 0
-548 -1600 0
-545 -1173 0
-546 -1174 0
-547 -1175 0
-548 -1176 0
-545 -5777 0
-546 -5778 0
-547 -5779 0
-548 -5780 0
-545 -1201 0
-546 -1202 0
-547 -1203 0
-548 -1204 0
-545 -1209 0
-546 -1210 0
-547 -1211 0
-548 -1212 0
-545 -5833 0
-546 -5834 0
-547 -5835 0
-548 -5836 0
-545 -3793 0
-546 -3794 0
-547 -3795 0
-548 -3796 0
-545 -773 0
-546 -774 0
-547 -775 0
-548 -776 0
-545 -3333 0
-546 -3334 0
-547 -3335 0
-548 -3336 0
-545 -4889 0
-546 -4890 0
-547 -4891 0
-548 -4892 0
-545 -2845 0
-546 -2846 0
-547 -2847 0
-548 -2848 0
-545 -1829 0
-546 -1830 0
-547 -1831 0
-548 -1832 0
-545 -1833 0
-546 -1834 0
-547 -1835 0
-548 -1836 0
-545 -3373 0
-546 -3374 0
-547 -3375 0
-548 -3376 0
-545 -3881 0
-546 -3882 0
-547 -3883 0
-548 -3884 0
-545 -821 0
-546 -822 0
-547 -823 0
-548 -824 0
-545 -2869 0
-546 -2870 0
-547 -2871 0
-548 -2872 0
-545 -1345 0
-546 -1346 0
-547 -1347 0
-548 -1348 0
-545 -3393 0
-546 -3394 0
-547 -3395 0
-548 -3396 0
-545 -2389 0
-546 -2390 0
-547 -2391 0
-548 -2392 0
-545 -2425 0
-546 -2426 0
-547 -2427 0
-548 -2428 0
-545 -3973 0
-546 -3974 0
-547 -3975 0
-548 -3976 0
-545 -913 0
-546 -914 0
-547 -915 0
-548 -916 0
-545 -1945 0
-546 -1946 0
-547 -1947 0
-548 -1948 0
-549 -3977 0
-550 -3978 0
-551 -3979 0
-552 -3980 0
-549 -1045 0
-550 -1046 0
-551 -1047 0
-552 -1048 0
-549 -1301 0
-550 -1302 0
-551 -1303 0
-552 -1304 0
-549 -3605 0
-550 -3606 0
-551 -3607 0
-552 -3608 0
-549 -4893 0
-550 -4894 0
-551 -4895 0
-552 -4896 0
-549 -1065 0
-550 -1066 0
-551 -1067 0
-552 -1068 0
-549 -1081 0
-550 -1082 0
-551 -1083 0
-552 -1084 0
-549 -2873 0
-550 -2874 0
-551 -2875 0
-552 -2876 0
-549 -2429 0
-550 -2430 0
-551 -2431 0
-552 -2432 0
-553 -5385 0
-554 -5386 0
-555 -5387 0
-556 -5388 0
-553 -5773 0
-554 -5774 0
-555 -5775 0
-556 -5776 0
-553 -4885 0
-554 -4886 0
-555 -4887 0
-556 -4888 0
-553 -3353 0
-554 -3354 0
-555 -3355 0
-556 -3356 0
-553 -2741 0
-554 -2742 0
-555 -2743 0
-556 -2744 0
-553 -569 0
-554 -570 0
-555 -571 0
-556 -572 0
-553 -1341 0
-554 -1342 0
-555 -1343 0
-556 -1344 0
-553 -2889 0
-554 -2890 0
-555 -2891 0
-556 -2892 0
-553 -4429 0
-554 -4430 0
-555 -4431 0
-556 -4432 0
-557 -1053 0
-558 -1054 0
-559 -1055 0
-560 -1056 0
-557 -561 0
-558 -562 0
-559 -563 0
-560 -564 0
-557 -1089 0
-558 -1090 0
-559 -1091 0
-560 -1092 0
-557 -625 0
-558 -626 0
-559 -627 0
-560 -628 0
-557 -3765 0
-558 -3766 0
-559 -3767 0
-560 -3768 0
-557 -2749 0
-558 -2750 0
-559 -2751 0
-560 -2752 0
-557 -1217 0
-558 -1218 0
-559 -1219 0
-560 -1220 0
-557 -4893 0
-558 -4894 0
-559 -4895 0
-560 -4896 0
-557 -801 0
-558 -802 0
-559 -803 0
-560 -804 0
-557 -3361 0
-558 -3362 0
-559 -3363 0
-560 -3364 0
-557 -2873 0
-558 -2874 0
-559 -2875 0
-560 -2876 0
-557 -4437 0
-558 -4438 0
-559 -4439 0
-560 -4440 0
-557 -2401 0
-558 -2402 0
-559 -2403 0
-560 -2404 0
-557 -1385 0
-558 -1386 0
-559 -1387 0
-560 -1388 0
-557 -2441 0
-558 -2442 0
-559 -2443 0
-560 -2444 0
-557 -1949 0
-558 -1950 0
-559 -1951 0
-560 -1952 0
-557 -3485 0
-558 -3486 0
-559 -3487 0
-560 -3488 0
-557 -933 0
-558 -934 0
-559 -935 0
-560 -936 0
-557 -4577 0
-558 -4578 0
-559 -4579 0
-560 -4580 0
-557 -2533 0
-558 -2534 0
-559 -2535 0
-560 -2536 0
-561 -3589 0
-562 -3590 0
-563 -3591 0
-564 -3592 0
-561 -565 0
-562 -566 0
-563 -567 0
-564 -568 0
-561 -5785 0
-562 -5786 0
-563 -5787 0
-564 -5788 0
-561 -1193 0
-562 -1194 0
-563 -1195 0
-564 -1196 0
-561 -5321 0
-562 -5322 0
-563 -5323 0
-564 -5324 0
-561 -5841 0
-562 -5842 0
-563 -5843 0
-564 -5844 0
-561 -2261 0
-562 -2262 0
-563 -2263 0
-564 -2264 0
-561 -5877 0
-562 -5878 0
-563 -5879 0
-564 -5880 0
-561 -3369 0
-562 -3370 0
-563 -3371 0
-564 -3372 0
-561 -4905 0
-562 -4906 0
-563 -4907 0
-564 -4908 0
-561 -1845 0
-562 -1846 0
-563 -1847 0
-564 -1848 0
-561 -1849 0
-562 -1850 0
-563 -1851 0
-564 -1852 0
-561 -4417 0
-562 -4418 0
-563 -4419 0
-564 -4420 0
-561 -3405 0
-562 -3406 0
-563 -3407 0
-564 -3408 0
-561 -1361 0
-562 -1362 0
-563 -1363 0
-564 -1364 0
-561 -3409 0
-562 -3410 0
-563 -3411 0
-564 -3412 0
-561 -2905 0
-562 -2906 0
-563 -2907 0
-564 -2908 0
-561 -1373 0
-562 -1374 0
-563 -1375 0
-564 -1376 0
-561 -2409 0
-562 -2410 0
-563 -2411 0
-564 -2412 0
-561 -929 0
-562 -930 0
-563 -931 0
-564 -932 0
-561 -941 0
-562 -942 0
-563 -943 0
-564 -944 0
-561 -957 0
-562 -958 0
-563 -959 0
-564 -960 0
-561 -2493 0
-562 -2494 0
-563 -2495 0
-564 -2496 0
-561 -2541 0
-562 -2542 0
-563 -2543 0
-564 -2544 0
-565 -801 0
-566 -802 0
-567 -803 0
-568 -804 0
-565 -933 0
-566 -934 0
-567 -935 0
-568 -936 0
-565 -3373 0
-566 -3374 0
-567 -3375 0
-568 -3376 0
-565 -1849 0
-566 -1850 0
-567 -1851 0
-568 -1852 0
-565 -969 0
-566 -970 0
-567 -971 0
-568 -972 0
-565 -1225 0
-566 -1226 0
-567 -1227 0
-568 -1228 0
-565 -1365 0
-566 -1366 0
-567 -1367 0
-568 -1368 0
-565 -2413 0
-566 -2414 0
-567 -2415 0
-568 -2416 0
-565 -1389 0
-566 -1390 0
-567 -1391 0
-568 -1392 0
-565 -5241 0
-566 -5242 0
-567 -5243 0
-568 -5244 0
-569 -3621 0
-570 -3622 0
-571 -3623 0
-572 -3624 0
-569 -3641 0
-570 -3642 0
-571 -3643 0
-572 -3644 0
-569 -573 0
-570 -574 0
-571 -575 0
-572 -576 0
-569 -5785 0
-570 -5786 0
-571 -5787 0
-572 -5788 0
-569 -4765 0
-570 -4766 0
-571 -4767 0
-572 -4768 0
-569 -3801 0
-570 -3802 0
-571 -3803 0
-572 -3804 0
-569 -4905 0
-570 -4906 0
-571 -4907 0
-572 -4908 0
-569 -1325 0
-570 -1326 0
-571 -1327 0
-572 -1328 0
-569 -1853 0
-570 -1854 0
-571 -1855 0
-572 -1856 0
-569 -1357 0
-570 -1358 0
-571 -1359 0
-572 -1360 0
-569 -1361 0
-570 -1362 0
-571 -1363 0
-572 -1364 0
-569 -3409 0
-570 -3410 0
-571 -3411 0
-572 -3412 0
-569 -2905 0
-570 -2906 0
-571 -2907 0
-572 -2908 0
-569 -4449 0
-570 -4450 0
-571 -4451 0
-572 -4452 0
-569 -2929 0
-570 -2930 0
-571 -2931 0
-572 -2932 0
-573 -2453 0
-574 -2454 0
-575 -2455 0
-576 -2456 0
-573 -5793 0
-574 -5794 0
-575 -5795 0
-576 -5796 0
-573 -3505 0
-574 -3506 0
-575 -3507 0
-576 -3508 0
-573 -1973 0
-574 -1974 0
-575 -1975 0
-576 -1976 0
-573 -3421 0
-574 -3422 0
-575 -3423 0
-576 -3424 0
-573 -1217 0
-574 -1218 0
-575 -1219 0
-576 -1220 0
-573 -1345 0
-574 -1346 0
-575 -1347 0
-576 -1348 0
-573 -4917 0
-574 -4918 0
-575 -4919 0
-576 -4920 0
-573 -3925 0
-574 -3926 0
-575 -3927 0
-576 -3928 0
-573 -1885 0
-574 -1886 0
-575 -1887 0
-576 -1888 0
-573 -1897 0
-574 -1898 0
-575 -1899 0
-576 -1900 0
-573 -1141 0
-574 -1142 0
-575 -1143 0
-576 -1144 0
-577 -581 0
-578 -582 0
-579 -583 0
-580 -584 0
-577 -593 0
-578 -594 0
-579 -595 0
-580 -596 0
-577 -609 0
-578 -610 0
-579 -611 0
-580 -612 0
-577 -3857 0
-578 -3858 0
-579 -3859 0
-580 -3860 0
-577 -1341 0
-578 -1342 0
-579 -1343 0
-580 -1344 0
-577 -4925 0
-578 -4926 0
-579 -4927 0
-580 -4928 0
-577 -3413 0
-578 -3414 0
-579 -3415 0
-580 -3416 0
-577 -2925 0
-578 -2926 0
-579 -2927 0
-580 -2928 0
-577 -1905 0
-578 -1906 0
-579 -1907 0
-580 -1908 0
-577 -4481 0
-578 -4482 0
-579 -4483 0
-580 -4484 0
-577 -2977 0
-578 -2978 0
-579 -2979 0
-580 -2980 0
-577 -2469 0
-578 -2470 0
-579 -2471 0
-580 -2472 0
-577 -3513 0
-578 -3514 0
-579 -3515 0
-580 -3516 0
-577 -961 0
-578 -962 0
-579 -963 0
-580 -964 0
-577 -965 0
-578 -966 0
-579 -967 0
-580 -968 0
-577 -4601 0
-578 -4602 0
-579 -4603 0
-580 -4604 0
-581 -817 0
-582 -818 0
-583 -819 0
-584 -820 0
-581 -1345 0
-582 -1346 0
-583 -1347 0
-584 -1348 0
-581 -1473 0
-582 -1474 0
-583 -1475 0
-584 -1476 0
-581 -3417 0
-582 -3418 0
-583 -3419 0
-584 -3420 0
-581 -3433 0
-582 -3434 0
-583 -3435 0
-584 -3436 0
-581 -2929 0
-582 -2930 0
-583 -2931 0
-584 -2932 0
-581 -1149 0
-582 -1150 0
-583 -1151 0
-584 -1152 0
-585 -1409 0
-586 -1410 0
-587 -1411 0
-588 -1412 0
-585 -3617 0
-586 -3618 0
-587 -3619 0
-588 -3620 0
-585 -1329 0
-586 -1330 0
-587 -1331 0
-588 -1332 0
-585 -3637 0
-586 -3638 0
-587 -3639 0
-588 -3640 0
-585 -3517 0
-586 -3518 0
-587 -3519 0
-588 -3520 0
-585 -1985 0
-586 -1986 0
-587 -1987 0
-588 -1988 0
-585 -1477 0
-586 -1478 0
-587 -1479 0
-588 -1480 0
-585 -4029 0
-586 -4030 0
-587 -4031 0
-588 -4032 0
-585 -4929 0
-586 -4930 0
-587 -4931 0
-588 -4932 0
-585 -1361 0
-586 -1362 0
-587 -1363 0
-588 -1364 0
-585 -1617 0
-586 -1618 0
-587 -1619 0
-588 -1620 0
-585 -4469 0
-586 -4470 0
-587 -4471 0
-588 -4472 0
-585 -1909 0
-586 -1910 0
-587 -1911 0
-588 -1912 0
-589 -1285 0
-590 -1286 0
-591 -1287 0
-592 -1288 0
-589 -2481 0
-590 -2482 0
-591 -2483 0
-592 -2484 0
-589 -2033 0
-590 -2034 0
-591 -2035 0
-592 -2036 0
-589 -1469 0
-590 -1470 0
-591 -1471 0
-592 -1472 0
-589 -2897 0
-590 -2898 0
-591 -2899 0
-592 -2900 0
-589 -989 0
-590 -990 0
-591 -991 0
-592 -992 0
-589 -1385 0
-590 -1386 0
-591 -1387 0
-592 -1388 0
-589 -1261 0
-590 -1262 0
-591 -1263 0
-592 -1264 0
-589 -1649 0
-590 -1650 0
-591 -1651 0
-592 -1652 0
-589 -1021 0
-590 -1022 0
-591 -1023 0
-592 -1024 0
-593 -5385 0
-594 -5386 0
-595 -5387 0
-596 -5388 0
-593 -5513 0
-594 -5514 0
-595 -5515 0
-596 -5516 0
-593 -3477 0
-594 -3478 0
-595 -3479 0
-596 -3480 0
-593 -3353 0
-594 -3354 0
-595 -3355 0
-596 -3356 0
-593 -1065 0
-594 -1066 0
-595 -1067 0
-596 -1068 0
-593 -1201 0
-594 -1202 0
-595 -1203 0
-596 -1204 0
-593 -829 0
-594 -830 0
-595 -831 0
-596 -832 0
-593 -3921 0
-594 -3922 0
-595 -3923 0
-596 -3924 0
-593 -3821 0
-594 -3822 0
-595 -3823 0
-596 -3824 0
-593 -1393 0
-594 -1394 0
-595 -1395 0
-596 -1396 0
-597 -1065 0
-598 -1066 0
-599 -1067 0
-600 -1068 0
-597 -3657 0
-598 -3658 0
-599 -3659 0
-600 -3660 0
-597 -605 0
-598 -606 0
-599 -607 0
-600 -608 0
-597 -617 0
-598 -618 0
-599 -619 0
-600 -620 0
-597 -1697 0
-598 -1698 0
-599 -1699 0
-600 -1700 0
-597 -1193 0
-598 -1194 0
-599 -1195 0
-600 -1196 0
-597 -1209 0
-598 -1210 0
-599 -1211 0
-600 -1212 0
-597 -4845 0
-598 -4846 0
-599 -4847 0
-600 -4848 0
-597 -1321 0
-598 -1322 0
-599 -1323 0
-600 -1324 0
-597 -2861 0
-598 -2862 0
-599 -2863 0
-600 -2864 0
-597 -2353 0
-598 -2354 0
-599 -2355 0
-600 -2356 0
-597 -829 0
-598 -830 0
-599 -831 0
-600 -832 0
-597 -3941 0
-598 -3942 0
-599 -3943 0
-600 -3944 0
-597 -1401 0
-598 -1402 0
-599 -1403 0
-600 -1404 0
-597 -3497 0
-598 -3498 0
-599 -3499 0
-600 -3500 0
-597 -2497 0
-598 -2498 0
-599 -2499 0
-600 -2500 0
-597 -3021 0
-598 -3022 0
-599 -3023 0
-600 -3024 0
-597 -4561 0
-598 -4562 0
-599 -4563 0
-600 -4564 0
-597 -2009 0
-598 -2010 0
-599 -2011 0
-600 -2012 0
-597 -1017 0
-598 -1018 0
-599 -1019 0
-600 -1020 0
-601 -1285 0
-602 -1286 0
-603 -1287 0
-604 -1288 0
-601 -1037 0
-602 -1038 0
-603 -1039 0
-604 -1040 0
-601 -2961 0
-602 -2962 0
-603 -2963 0
-604 -2964 0
-601 -1429 0
-602 -1430 0
-603 -1431 0
-604 -1432 0
-601 -1701 0
-602 -1702 0
-603 -1703 0
-604 -1704 0
-601 -1197 0
-602 -1198 0
-603 -1199 0
-604 -1200 0
-601 -2865 0
-602 -2866 0
-603 -2867 0
-604 -2868 0
-601 -5349 0
-602 -5350 0
-603 -5351 0
-604 -5352 0
-601 -2025 0
-602 -2026 0
-603 -2027 0
-604 -2028 0
-605 -1041 0
-606 -1042 0
-607 -1043 0
-608 -1044 0
-605 -4149 0
-606 -4150 0
-607 -4151 0
-608 -4152 0
-605 -1093 0
-606 -1094 0
-607 -1095 0
-608 -1096 0
-605 -2137 0
-606 -2138 0
-607 -2139 0
-608 -2140 0
-605 -3673 0
-606 -3674 0
-607 -3675 0
-608 -3676 0
-605 -609 0
-606 -610 0
-607 -611 0
-608 -612 0
-605 -1713 0
-606 -1714 0
-607 -1715 0
-608 -1716 0
-605 -1225 0
-606 -1226 0
-607 -1227 0
-608 -1228 0
-605 -4809 0
-606 -4810 0
-607 -4811 0
-608 -4812 0
-605 -5345 0
-606 -5346 0
-607 -5347 0
-608 -5348 0
-605 -5353 0
-606 -5354 0
-607 -5355 0
-608 -5356 0
-605 -1341 0
-606 -1342 0
-607 -1343 0
-608 -1344 0
-605 -2377 0
-606 -2378 0
-607 -2379 0
-608 -2380 0
-605 -3413 0
-606 -3414 0
-607 -3415 0
-608 -3416 0
-605 -1397 0
-606 -1398 0
-607 -1399 0
-608 -1400 0
-605 -1457 0
-606 -1458 0
-607 -1459 0
-608 -1460 0
-605 -2489 0
-606 -2490 0
-607 -2491 0
-608 -2492 0
-605 -3049 0
-606 -3050 0
-607 -3051 0
-608 -3052 0
-605 -2029 0
-606 -2030 0
-607 -2031 0
-608 -2032 0
-605 -2033 0
-606 -2034 0
-607 -2035 0
-608 -2036 0
-609 -1437 0
-610 -1438 0
-611 -1439 0
-612 -1440 0
-609 -1709 0
-610 -1710 0
-611 -1711 0
-612 -1712 0
-609 -3509 0
-610 -3510 0
-611 -3511 0
-612 -3512 0
-609 -1345 0
-610 -1346 0
-611 -1347 0
-612 -1348 0
-609 -2493 0
-610 -2494 0
-611 -2495 0
-612 -2496 0
-609 -2897 0
-610 -2898 0
-611 -2899 0
-612 -2900 0
-609 -3417 0
-610 -3418 0
-611 -3419 0
-612 -3420 0
-609 -3053 0
-610 -3054 0
-611 -3055 0
-612 -3056 0
-609 -2033 0
-610 -2034 0
-611 -2035 0
-612 -2036 0
-609 -2037 0
-610 -2038 0
-611 -2039 0
-612 -2040 0
-613 -641 0
-614 -642 0
-615 -643 0
-616 -644 0
-613 -3089 0
-614 -3090 0
-615 -3091 0
-616 -3092 0
-613 -1065 0
-614 -1066 0
-615 -1067 0
-616 -1068 0
-613 -1725 0
-614 -1726 0
-615 -1727 0
-616 -1728 0
-613 -2509 0
-614 -2510 0
-615 -2511 0
-616 -2512 0
-613 -2129 0
-614 -2130 0
-615 -2131 0
-616 -2132 0
-613 -6101 0
-614 -6102 0
-615 -6103 0
-616 -6104 0
-613 -3677 0
-614 -3678 0
-615 -3679 0
-616 -3680 0
-613 -2401 0
-614 -2402 0
-615 -2403 0
-616 -2404 0
-613 -4849 0
-614 -4850 0
-615 -4851 0
-616 -4852 0
-617 -3601 0
-618 -3602 0
-619 -3603 0
-620 -3604 0
-617 -3101 0
-618 -3102 0
-619 -3103 0
-620 -3104 0
-617 -1065 0
-618 -1066 0
-619 -1067 0
-620 -1068 0
-617 -1081 0
-618 -1082 0
-619 -1083 0
-620 -1084 0
-617 -4669 0
-618 -4670 0
-619 -4671 0
-620 -4672 0
-617 -1101 0
-618 -1102 0
-619 -1103 0
-620 -1104 0
-617 -4193 0
-618 -4194 0
-619 -4195 0
-620 -4196 0
-617 -1205 0
-618 -1206 0
-619 -1207 0
-620 -1208 0
-617 -1725 0
-618 -1726 0
-619 -1727 0
-620 -1728 0
-617 -1737 0
-618 -1738 0
-619 -1739 0
-620 -1740 0
-617 -5849 0
-618 -5850 0
-619 -5851 0
-620 -5852 0
-617 -1317 0
-618 -1318 0
-619 -1319 0
-620 -1320 0
-617 -2413 0
-618 -2414 0
-619 -2415 0
-620 -2416 0
-617 -2945 0
-618 -2946 0
-619 -2947 0
-620 -2948 0
-617 -1417 0
-618 -1418 0
-619 -1419 0
-620 -1420 0
-617 -1429 0
-618 -1430 0
-619 -1431 0
-620 -1432 0
-617 -2513 0
-618 -2514 0
-619 -2515 0
-620 -2516 0
-617 -4061 0
-618 -4062 0
-619 -4063 0
-620 -4064 0
-621 -1285 0
-622 -1286 0
-623 -1287 0
-624 -1288 0
-621 -4881 0
-622 -4882 0
-623 -4883 0
-624 -4884 0
-621 -1105 0
-622 -1106 0
-623 -1107 0
-624 -1108 0
-621 -3037 0
-622 -3038 0
-623 -3039 0
-624 -3040 0
-621 -5473 0
-622 -5474 0
-623 -5475 0
-624 -5476 0
-621 -1769 0
-622 -1770 0
-623 -1771 0
-624 -1772 0
-625 -1289 0
-626 -1290 0
-627 -1291 0
-628 -1292 0
-625 -2721 0
-626 -2722 0
-627 -2723 0
-628 -2724 0
-625 -3497 0
-626 -3498 0
-627 -3499 0
-628 -3500 0
-625 -2353 0
-626 -2354 0
-627 -2355 0
-628 -2356 0
-625 -1333 0
-626 -1334 0
-627 -1335 0
-628 -1336 0
-625 -4273 0
-626 -4274 0
-627 -4275 0
-628 -4276 0
-625 -4909 0
-626 -4910 0
-627 -4911 0
-628 -4912 0
-625 -1109 0
-626 -1110 0
-627 -1111 0
-628 -1112 0
-625 -2273 0
-626 -2274 0
-627 -2275 0
-628 -2276 0
-629 -3589 0
-630 -3590 0
-631 -3591 0
-632 -3592 0
-629 -2069 0
-630 -2070 0
-631 -2071 0
-632 -2072 0
-629 -2633 0
-630 -2634 0
-631 -2635 0
-632 -2636 0
-629 -2637 0
-630 -2638 0
-631 -2639 0
-632 -2640 0
-629 -1133 0
-630 -1134 0
-631 -1135 0
-632 -1136 0
-629 -2161 0
-630 -2162 0
-631 -2163 0
-632 -2164 0
-629 -2169 0
-630 -2170 0
-631 -2171 0
-632 -2172 0
-629 -669 0
-630 -670 0
-631 -671 0
-632 -672 0
-629 -1181 0
-630 -1182 0
-631 -1183 0
-632 -1184 0
-629 -2741 0
-630 -2742 0
-631 -2743 0
-632 -2744 0
-629 -4285 0
-630 -4286 0
-631 -4287 0
-632 -4288 0
-629 -1285 0
-630 -1286 0
-631 -1287 0
-632 -1288 0
-629 -1297 0
-630 -1298 0
-631 -1299 0
-632 -1300 0
-629 -793 0
-630 -794 0
-631 -795 0
-632 -796 0
-629 -5405 0
-630 -5406 0
-631 -5407 0
-632 -5408 0
-629 -1825 0
-630 -1826 0
-631 -1827 0
-632 -1828 0
-629 -5409 0
-630 -5410 0
-631 -5411 0
-632 -5412 0
-629 -809 0
-630 -810 0
-631 -811 0
-632 -812 0
-629 -1837 0
-630 -1838 0
-631 -1839 0
-632 -1840 0
-629 -1397 0
-630 -1398 0
-631 -1399 0
-632 -1400 0
-629 -1461 0
-630 -1462 0
-631 -1463 0
-632 -1464 0
-629 -2501 0
-630 -2502 0
-631 -2503 0
-632 -2504 0
-633 -649 0
-634 -650 0
-635 -651 0
-636 -652 0
-633 -1417 0
-634 -1418 0
-635 -1419 0
-636 -1420 0
-633 -1425 0
-634 -1426 0
-635 -1427 0
-636 -1428 0
-633 -1301 0
-634 -1302 0
-635 -1303 0
-636 -1304 0
-633 -2185 0
-634 -2186 0
-635 -2187 0
-636 -2188 0
-633 -3725 0
-634 -3726 0
-635 -3727 0
-636 -3728 0
-633 -673 0
-634 -674 0
-635 -675 0
-636 -676 0
-633 -2753 0
-634 -2754 0
-635 -2755 0
-636 -2756 0
-633 -2761 0
-634 -2762 0
-635 -2763 0
-636 -2764 0
-633 -3529 0
-634 -3530 0
-635 -3531 0
-636 -3532 0
-633 -5877 0
-634 -5878 0
-635 -5879 0
-636 -5880 0
-633 -2173 0
-634 -2174 0
-635 -2175 0
-636 -2176 0
-637 -641 0
-638 -642 0
-639 -643 0
-640 -644 0
-637 -2181 0
-638 -2182 0
-639 -2183 0
-640 -2184 0
-637 -4625 0
-638 -4626 0
-639 -4627 0
-640 -4628 0
-637 -1337 0
-638 -1338 0
-639 -1339 0
-640 -1340 0
-637 -2401 0
-638 -2402 0
-639 -2403 0
-640 -2404 0
-641 -4109 0
-642 -4110 0
-643 -4111 0
-644 -4112 0
-641 -4629 0
-642 -4630 0
-643 -4631 0
-644 -4632 0
-641 -4077 0
-642 -4078 0
-643 -4079 0
-644 -4080 0
-641 -2649 0
-642 -2650 0
-643 -2651 0
-644 -2652 0
-641 -3165 0
-642 -3166 0
-643 -3167 0
-644 -3168 0
-641 -2141 0
-642 -2142 0
-643 -2143 0
-644 -2144 0
-641 -1657 0
-642 -1658 0
-643 -1659 0
-644 -1660 0
-641 -1153 0
-642 -1154 0
-643 -1155 0
-644 -1156 0
-641 -645 0
-642 -646 0
-643 -647 0
-644 -648 0
-641 -2181 0
-642 -2182 0
-643 -2183 0
-644 -2184 0
-641 -1281 0
-642 -1282 0
-643 -1283 0
-644 -1284 0
-641 -4877 0
-642 -4878 0
-643 -4879 0
-644 -4880 0
-641 -1317 0
-642 -1318 0
-643 -1319 0
-644 -1320 0
-641 -5425 0
-642 -5426 0
-643 -5427 0
-644 -5428 0
-641 -1341 0
-642 -1342 0
-643 -1343 0
-644 -1344 0
-641 -4945 0
-642 -4946 0
-643 -4947 0
-644 -4948 0
-641 -2405 0
-642 -2406 0
-643 -2407 0
-644 -2408 0
-641 -3537 0
-642 -3538 0
-643 -3539 0
-644 -3540 0
-641 -3033 0
-642 -3034 0
-643 -3035 0
-644 -3036 0
-641 -4589 0
-642 -4590 0
-643 -4591 0
-644 -4592 0
-645 -1285 0
-646 -1286 0
-647 -1287 0
-648 -1288 0
-645 -2185 0
-646 -2186 0
-647 -2187 0
-648 -2188 0
-645 -4881 0
-646 -4882 0
-647 -4883 0
-648 -4884 0
-645 -1345 0
-646 -1346 0
-647 -1347 0
-648 -1348 0
-645 -1857 0
-646 -1858 0
-647 -1859 0
-648 -1860 0
-645 -4949 0
-646 -4950 0
-647 -4951 0
-648 -4952 0
-645 -3037 0
-646 -3038 0
-647 -3039 0
-648 -3040 0
-645 -3169 0
-646 -3170 0
-647 -3171 0
-648 -3172 0
-645 -5877 0
-646 -5878 0
-647 -5879 0
-648 -5880 0
-649 -1413 0
-650 -1414 0
-651 -1415 0
-652 -1416 0
-649 -4361 0
-650 -4362 0
-651 -4363 0
-652 -4364 0
-649 -653 0
-650 -654 0
-651 -655 0
-652 -656 0
-649 -1937 0
-650 -1938 0
-651 -1939 0
-652 -1940 0
-649 -3105 0
-650 -3106 0
-651 -3107 0
-652 -3108 0
-649 -681 0
-650 -682 0
-651 -683 0
-652 -684 0
-649 -689 0
-650 -690 0
-651 -691 0
-652 -692 0
-649 -1341 0
-650 -1342 0
-651 -1343 0
-652 -1344 0
-649 -2241 0
-650 -2242 0
-651 -2243 0
-652 -2244 0
-649 -3645 0
-650 -3646 0
-651 -3647 0
-652 -3648 0
-649 -1357 0
-650 -1358 0
-651 -1359 0
-652 -1360 0
-649 -2125 0
-650 -2126 0
-651 -2127 0
-652 -2128 0
-653 -1941 0
-654 -1942 0
-655 -1943 0
-656 -1944 0
-653 -5177 0
-654 -5178 0
-655 -5179 0
-656 -5180 0
-653 -1345 0
-654 -1346 0
-655 -1347 0
-656 -1348 0
-653 -2245 0
-654 -2246 0
-655 -2247 0
-656 -2248 0
-653 -1097 0
-654 -1098 0
-655 -1099 0
-656 -1100 0
-653 -3685 0
-654 -3686 0
-655 -3687 0
-656 -3688 0
-657 -1285 0
-658 -1286 0
-659 -1287 0
-660 -1288 0
-657 -3717 0
-658 -3718 0
-659 -3719 0
-660 -3720 0
-657 -665 0
-658 -666 0
-659 -667 0
-660 -668 0
-657 -2353 0
-658 -2354 0
-659 -2355 0
-660 -2356 0
-657 -3293 0
-658 -3294 0
-659 -3295 0
-660 -3296 0
-657 -1469 0
-658 -1470 0
-659 -1471 0
-660 -1472 0
-657 -3705 0
-658 -3706 0
-659 -3707 0
-660 -3708 0
-657 -2005 0
-658 -2006 0
-659 -2007 0
-660 -2008 0
-657 -1241 0
-658 -1242 0
-659 -1243 0
-660 -1244 0
-657 -2013 0
-658 -2014 0
-659 -2015 0
-660 -2016 0
-657 -1249 0
-658 -1250 0
-659 -1251 0
-660 -1252 0
-657 -1765 0
-658 -1766 0
-659 -1767 0
-660 -1768 0
-657 -885 0
-658 -886 0
-659 -887 0
-660 -888 0
-657 -3449 0
-658 -3450 0
-659 -3451 0
-660 -3452 0
-661 -1285 0
-662 -1286 0
-663 -1287 0
-664 -1288 0
-661 -3477 0
-662 -3478 0
-663 -3479 0
-664 -3480 0
-661 -1825 0
-662 -1826 0
-663 -1827 0
-664 -1828 0
-661 -2741 0
-662 -2742 0
-663 -2743 0
-664 -2744 0
-661 -1481 0
-662 -1482 0
-663 -1483 0
-664 -1484 0
-661 -2401 0
-662 -2402 0
-663 -2403 0
-664 -2404 0
-661 -4349 0
-662 -4350 0
-663 -4351 0
-664 -4352 0
-665 -1133 0
-666 -1134 0
-667 -1135 0
-668 -1136 0
-665 -673 0
-666 -674 0
-667 -675 0
-668 -676 0
-665 -1189 0
-666 -1190 0
-667 -1191 0
-668 -1192 0
-665 -2741 0
-666 -2742 0
-667 -2743 0
-668 -2744 0
-665 -4281 0
-666 -4282 0
-667 -4283 0
-668 -4284 0
-665 -705 0
-666 -706 0
-667 -707 0
-668 -708 0
-665 -1285 0
-666 -1286 0
-667 -1287 0
-668 -1288 0
-665 -3337 0
-666 -3338 0
-667 -3339 0
-668 -3340 0
-665 -4361 0
-666 -4362 0
-667 -4363 0
-668 -4364 0
-665 -1297 0
-666 -1298 0
-667 -1299 0
-668 -1300 0
-665 -5905 0
-666 -5906 0
-667 -5907 0
-668 -5908 0
-665 -2333 0
-666 -2334 0
-667 -2335 0
-668 -2336 0
-665 -1825 0
-666 -1826 0
-667 -1827 0
-668 -1828 0
-665 -1325 0
-666 -1326 0
-667 -1327 0
-668 -1328 0
-665 -1837 0
-666 -1838 0
-667 -1839 0
-668 -1840 0
-665 -2413 0
-666 -2414 0
-667 -2415 0
-668 -2416 0
-665 -925 0
-666 -926 0
-667 -927 0
-668 -928 0
-665 -1441 0
-666 -1442 0
-667 -1443 0
-668 -1444 0
-665 -3485 0
-666 -3486 0
-667 -3487 0
-668 -3488 0
-665 -1453 0
-666 -1454 0
-667 -1455 0
-668 -1456 0
-665 -1485 0
-666 -1486 0
-667 -1487 0
-668 -1488 0
-669 -2093 0
-670 -2094 0
-671 -2095 0
-672 -2096 0
-669 -3725 0
-670 -3726 0
-671 -3727 0
-672 -3728 0
-669 -673 0
-670 -674 0
-671 -675 0
-672 -676 0
-669 -685 0
-670 -686 0
-671 -687 0
-672 -688 0
-669 -2753 0
-670 -2754 0
-671 -2755 0
-672 -2756 0
-669 -2761 0
-670 -2762 0
-671 -2763 0
-672 -2764 0
-669 -1301 0
-670 -1302 0
-671 -1303 0
-672 -1304 0
-669 -5917 0
-670 -5918 0
-671 -5919 0
-672 -5920 0
-669 -2349 0
-670 -2350 0
-671 -2351 0
-672 -2352 0
-669 -2353 0
-670 -2354 0
-671 -2355 0
-672 -2356 0
-669 -3373 0
-670 -3374 0
-671 -3375 0
-672 -3376 0
-669 -1341 0
-670 -1342 0
-671 -1343 0
-672 -1344 0
-669 -5965 0
-670 -5966 0
-671 -5967 0
-672 -5968 0
-669 -5481 0
-670 -5482 0
-671 -5483 0
-672 -5484 0
-669 -1417 0
-670 -1418 0
-671 -1419 0
-672 -1420 0
-669 -2441 0
-670 -2442 0
-671 -2443 0
-672 -2444 0
-669 -1425 0
-670 -1426 0
-671 -1427 0
-672 -1428 0
-669 -5037 0
-670 -5038 0
-671 -5039 0
-672 -5040 0
-673 -3721 0
-674 -3722 0
-675 -3723 0
-676 -3724 0
-673 -2445 0
-674 -2446 0
-675 -2447 0
-676 -2448 0
-673 -1305 0
-674 -1306 0
-675 -1307 0
-676 -1308 0
-673 -2081 0
-674 -2082 0
-675 -2083 0
-676 -2084 0
-673 -4385 0
-674 -4386 0
-675 -4387 0
-676 -4388 0
-673 -689 0
-674 -690 0
-675 -691 0
-676 -692 0
-673 -1201 0
-674 -1202 0
-675 -1203 0
-676 -1204 0
-673 -1845 0
-674 -1846 0
-675 -1847 0
-676 -1848 0
-673 -2353 0
-674 -2354 0
-675 -2355 0
-676 -2356 0
-673 -1345 0
-674 -1346 0
-675 -1347 0
-676 -1348 0
-673 -2357 0
-674 -2358 0
-675 -2359 0
-676 -2360 0
-673 -3449 0
-674 -3450 0
-675 -3451 0
-676 -3452 0
-673 -3293 0
-674 -3294 0
-675 -3295 0
-676 -3296 0
-677 -1937 0
-678 -1938 0
-679 -1939 0
-680 -1940 0
-677 -681 0
-678 -682 0
-679 -683 0
-680 -684 0
-677 -2473 0
-678 -2474 0
-679 -2475 0
-680 -2476 0
-677 -3497 0
-678 -3498 0
-679 -3499 0
-680 -3500 0
-677 -1341 0
-678 -1342 0
-679 -1343 0
-680 -1344 0
-677 -5953 0
-678 -5954 0
-679 -5955 0
-680 -5956 0
-677 -4573 0
-678 -4574 0
-679 -4575 0
-680 -4576 0
-677 -5977 0
-678 -5978 0
-679 -5979 0
-680 -5980 0
-677 -2397 0
-678 -2398 0
-679 -2399 0
-680 -2400 0
-677 -2401 0
-678 -2402 0
-679 -2403 0
-680 -2404 0
-677 -3429 0
-678 -3430 0
-679 -3431 0
-680 -3432 0
-677 -4345 0
-678 -4346 0
-679 -4347 0
-680 -4348 0
-677 -3325 0
-678 -3326 0
-679 -3327 0
-680 -3328 0
-681 -5125 0
-682 -5126 0
-683 -5127 0
-684 -5128 0
-681 -4733 0
-682 -4734 0
-683 -4735 0
-684 -4736 0
-681 -685 0
-682 -686 0
-683 -687 0
-684 -688 0
-681 -5301 0
-682 -5302 0
-683 -5303 0
-684 -5304 0
-681 -1229 0
-682 -1230 0
-683 -1231 0
-684 -1232 0
-681 -4349 0
-682 -4350 0
-683 -4351 0
-684 -4352 0
-681 -1329 0
-682 -1330 0
-683 -1331 0
-684 -1332 0
-681 -1345 0
-682 -1346 0
-683 -1347 0
-684 -1348 0
-681 -2401 0
-682 -2402 0
-683 -2403 0
-684 -2404 0
-681 -2405 0
-682 -2406 0
-683 -2407 0
-684 -2408 0
-681 -4449 0
-682 -4450 0
-683 -4451 0
-684 -4452 0
-681 -1925 0
-682 -1926 0
-683 -1927 0
-684 -1928 0
-681 -1941 0
-682 -1942 0
-683 -1943 0
-684 -1944 0
-681 -3477 0
-682 -3478 0
-683 -3479 0
-684 -3480 0
-681 -2477 0
-682 -2478 0
-683 -2479 0
-684 -2480 0
-681 -3501 0
-682 -3502 0
-683 -3503 0
-684 -3504 0
-681 -6125 0
-682 -6126 0
-683 -6127 0
-684 -6128 0
-685 -4737 0
-686 -4738 0
-687 -4739 0
-688 -4740 0
-685 -3333 0
-686 -3334 0
-687 -3335 0
-688 -3336 0
-685 -4357 0
-686 -4358 0
-687 -4359 0
-688 -4360 0
-685 -1937 0
-686 -1938 0
-687 -1939 0
-688 -1940 0
-685 -689 0
-686 -690 0
-687 -691 0
-688 -692 0
-685 -3505 0
-686 -3506 0
-687 -3507 0
-688 -3508 0
-685 -1341 0
-686 -1342 0
-687 -1343 0
-688 -1344 0
-685 -5957 0
-686 -5958 0
-687 -5959 0
-688 -5960 0
-685 -1357 0
-686 -1358 0
-687 -1359 0
-688 -1360 0
-685 -1369 0
-686 -1370 0
-687 -1371 0
-688 -1372 0
-685 -2409 0
-686 -2410 0
-687 -2411 0
-688 -2412 0
-685 -2413 0
-686 -2414 0
-687 -2415 0
-688 -2416 0
-689 -3337 0
-690 -3338 0
-691 -3339 0
-692 -3340 0
-689 -4361 0
-690 -4362 0
-691 -4363 0
-692 -4364 0
-689 -1941 0
-690 -1942 0
-691 -1943 0
-692 -1944 0
-689 -3485 0
-690 -3486 0
-691 -3487 0
-692 -3488 0
-689 -1441 0
-690 -1442 0
-691 -1443 0
-692 -1444 0
-689 -1345 0
-690 -1346 0
-691 -1347 0
-692 -1348 0
-689 -1373 0
-690 -1374 0
-691 -1375 0
-692 -1376 0
-689 -2413 0
-690 -2414 0
-691 -2415 0
-692 -2416 0
-689 -2417 0
-690 -2418 0
-691 -2419 0
-692 -2420 0
-693 -1549 0
-694 -1550 0
-695 -1551 0
-696 -1552 0
-693 -1557 0
-694 -1558 0
-695 -1559 0
-696 -1560 0
-693 -2741 0
-694 -2742 0
-695 -2743 0
-696 -2744 0
-693 -697 0
-694 -698 0
-695 -699 0
-696 -700 0
-693 -3037 0
-694 -3038 0
-695 -3039 0
-696 -3040 0
-697 -3049 0
-698 -3050 0
-699 -3051 0
-700 -3052 0
-697 -1557 0
-698 -1558 0
-699 -1559 0
-700 -1560 0
-697 -3733 0
-698 -3734 0
-699 -3735 0
-700 -3736 0
-697 -1569 0
-698 -1570 0
-699 -1571 0
-700 -1572 0
-697 -701 0
-698 -702 0
-699 -703 0
-700 -704 0
-697 -4177 0
-698 -4178 0
-699 -4179 0
-700 -4180 0
-697 -2025 0
-698 -2026 0
-699 -2027 0
-700 -2028 0
-697 -1777 0
-698 -1778 0
-699 -1779 0
-700 -1780 0
-701 -1569 0
-702 -1570 0
-703 -1571 0
-704 -1572 0
-701 -1577 0
-702 -1578 0
-703 -1579 0
-704 -1580 0
-701 -4777 0
-702 -4778 0
-703 -4779 0
-704 -4780 0
-701 -2033 0
-702 -2034 0
-703 -2035 0
-704 -2036 0
-705 -3845 0
-706 -3846 0
-707 -3847 0
-708 -3848 0
-705 -1557 0
-706 -1558 0
-707 -1559 0
-708 -1560 0
-705 -3369 0
-706 -3370 0
-707 -3371 0
-708 -3372 0
-705 -3885 0
-706 -3886 0
-707 -3887 0
-708 -3888 0
-705 -2741 0
-706 -2742 0
-707 -2743 0
-708 -2744 0
-705 -1725 0
-706 -1726 0
-707 -1727 0
-708 -1728 0
-705 -709 0
-706 -710 0
-707 -711 0
-708 -712 0
-705 -1733 0
-706 -1734 0
-707 -1735 0
-708 -1736 0
-705 -3037 0
-706 -3038 0
-707 -3039 0
-708 -3040 0
-705 -2661 0
-706 -2662 0
-707 -2663 0
-708 -2664 0
-705 -6129 0
-706 -6130 0
-707 -6131 0
-708 -6132 0
-705 -2301 0
-706 -2302 0
-707 -2303 0
-708 -2304 0
-709 -1569 0
-710 -1570 0
-711 -1571 0
-712 -1572 0
-709 -5665 0
-710 -5666 0
-711 -5667 0
-712 -5668 0
-709 -2105 0
-710 -2106 0
-711 -2107 0
-712 -2108 0
-709 -4177 0
-710 -4178 0
-711 -4179 0
-712 -4180 0
-709 -2673 0
-710 -2674 0
-711 -2675 0
-712 -2676 0
-709 -1733 0
-710 -1734 0
-711 -1735 0
-712 -1736 0
-709 -1741 0
-710 -1742 0
-711 -1743 0
-712 -1744 0
-709 -2305 0
-710 -2306 0
-711 -2307 0
-712 -2308 0
-709 -3857 0
-710 -3858 0
-711 -3859 0
-712 -3860 0
-709 -3881 0
-710 -3882 0
-711 -3883 0
-712 -3884 0
-709 -3377 0
-710 -3378 0
-711 -3379 0
-712 -3380 0
-709 -1973 0
-710 -1974 0
-711 -1975 0
-712 -1976 0
-709 -3049 0
-710 -3050 0
-711 -3051 0
-712 -3052 0
-709 -6125 0
-710 -6126 0
-711 -6127 0
-712 -6128 0
-709 -1529 0
-710 -1530 0
-711 -1531 0
-712 -1532 0
-713 -1557 0
-714 -1558 0
-715 -1559 0
-716 -1560 0
-713 -2341 0
-714 -2342 0
-715 -2343 0
-716 -2344 0
-713 -717 0
-714 -718 0
-715 -719 0
-716 -720 0
-713 -2025 0
-714 -2026 0
-715 -2027 0
-716 -2028 0
-713 -1777 0
-714 -1778 0
-715 -1779 0
-716 -1780 0
-713 -3449 0
-714 -3450 0
-715 -3451 0
-716 -3452 0
-717 -1569 0
-718 -1570 0
-719 -1571 0
-720 -1572 0
-717 -2353 0
-718 -2354 0
-719 -2355 0
-720 -2356 0
-717 -2033 0
-718 -2034 0
-719 -2035 0
-720 -2036 0
-717 -3061 0
-718 -3062 0
-719 -3063 0
-720 -3064 0
-717 -1789 0
-718 -1790 0
-719 -1791 0
-720 -1792 0
-721 -5005 0
-722 -5006 0
-723 -5007 0
-724 -5008 0
-721 -1557 0
-722 -1558 0
-723 -1559 0
-724 -1560 0
-721 -1817 0
-722 -1818 0
-723 -1819 0
-724 -1820 0
-721 -3097 0
-722 -3098 0
-723 -3099 0
-724 -3100 0
-721 -1829 0
-722 -1830 0
-723 -1831 0
-724 -1832 0
-721 -2341 0
-722 -2342 0
-723 -2343 0
-724 -2344 0
-721 -3953 0
-722 -3954 0
-723 -3955 0
-724 -3956 0
-721 -725 0
-722 -726 0
-723 -727 0
-724 -728 0
-721 -1777 0
-722 -1778 0
-723 -1779 0
-724 -1780 0
-721 -2553 0
-722 -2554 0
-723 -2555 0
-724 -2556 0
-721 -2173 0
-722 -2174 0
-723 -2175 0
-724 -2176 0
-725 -2177 0
-726 -2178 0
-727 -2179 0
-728 -2180 0
-725 -777 0
-726 -778 0
-727 -779 0
-728 -780 0
-725 -2185 0
-726 -2186 0
-727 -2187 0
-728 -2188 0
-725 -2697 0
-726 -2698 0
-727 -2699 0
-728 -2700 0
-725 -789 0
-726 -790 0
-727 -791 0
-728 -792 0
-725 -1569 0
-726 -1570 0
-727 -1571 0
-728 -1572 0
-725 -1829 0
-726 -1830 0
-727 -1831 0
-728 -1832 0
-725 -1837 0
-726 -1838 0
-727 -1839 0
-728 -1840 0
-725 -2353 0
-726 -2354 0
-727 -2355 0
-728 -2356 0
-725 -5705 0
-726 -5706 0
-727 -5707 0
-728 -5708 0
-725 -2557 0
-726 -2558 0
-727 -2559 0
-728 -2560 0
-729 -1557 0
-730 -1558 0
-731 -1559 0
-732 -1560 0
-729 -3777 0
-730 -3778 0
-731 -3779 0
-732 -3780 0
-729 -2385 0
-730 -2386 0
-731 -2387 0
-732 -2388 0
-729 -1877 0
-730 -1878 0
-731 -1879 0
-732 -1880 0
-729 -733 0
-730 -734 0
-731 -735 0
-732 -736 0
-729 -1509 0
-730 -1510 0
-731 -1511 0
-732 -1512 0
-729 -3961 0
-730 -3962 0
-731 -3963 0
-732 -3964 0
-733 -1541 0
-734 -1542 0
-735 -1543 0
-736 -1544 0
-733 -5529 0
-734 -5530 0
-735 -5531 0
-736 -5532 0
-733 -1569 0
-734 -1570 0
-735 -1571 0
-736 -1572 0
-733 -2721 0
-734 -2722 0
-735 -2723 0
-736 -2724 0
-733 -809 0
-734 -810 0
-735 -811 0
-736 -812 0
-733 -813 0
-734 -814 0
-735 -815 0
-736 -816 0
-733 -2221 0
-734 -2222 0
-735 -2223 0
-736 -2224 0
-733 -2733 0
-734 -2734 0
-735 -2735 0
-736 -2736 0
-733 -3749 0
-734 -3750 0
-735 -3751 0
-736 -3752 0
-733 -3753 0
-734 -3754 0
-735 -3755 0
-736 -3756 0
-733 -1889 0
-734 -1890 0
-735 -1891 0
-736 -1892 0
-733 -3193 0
-734 -3194 0
-735 -3195 0
-736 -3196 0
-733 -3965 0
-734 -3966 0
-735 -3967 0
-736 -3968 0
-737 -3973 0
-738 -3974 0
-739 -3975 0
-740 -3976 0
-737 -1557 0
-738 -1558 0
-739 -1559 0
-740 -1560 0
-737 -2237 0
-738 -2238 0
-739 -2239 0
-740 -2240 0
-737 -1897 0
-738 -1898 0
-739 -1899 0
-740 -1900 0
-741 -5089 0
-742 -5090 0
-743 -5091 0
-744 -5092 0
-741 -1309 0
-742 -1310 0
-743 -1311 0
-744 -1312 0
-741 -1065 0
-742 -1066 0
-743 -1067 0
-744 -1068 0
-741 -4021 0
-742 -4022 0
-743 -4023 0
-744 -4024 0
-741 -2005 0
-742 -2006 0
-743 -2007 0
-744 -2008 0
-741 -857 0
-742 -858 0
-743 -859 0
-744 -860 0
-741 -4065 0
-742 -4066 0
-743 -4067 0
-744 -4068 0
-741 -2793 0
-742 -2794 0
-743 -2795 0
-744 -2796 0
-741 -2289 0
-742 -2290 0
-743 -2291 0
-744 -2292 0
-745 -1733 0
-746 -1734 0
-747 -1735 0
-748 -1736 0
-745 -3369 0
-746 -3370 0
-747 -3371 0
-748 -3372 0
-745 -2809 0
-746 -2810 0
-747 -2811 0
-748 -2812 0
-749 -2817 0
-750 -2818 0
-751 -2819 0
-752 -2820 0
-749 -789 0
-750 -790 0
-751 -791 0
-752 -792 0
-749 -1557 0
-750 -1558 0
-751 -1559 0
-752 -1560 0
-749 -1689 0
-750 -1690 0
-751 -1691 0
-752 -1692 0
-749 -4137 0
-750 -4138 0
-751 -4139 0
-752 -4140 0
-749 -2225 0
-750 -2226 0
-751 -2227 0
-752 -2228 0
-749 -2033 0
-750 -2034 0
-751 -2035 0
-752 -2036 0
-749 -869 0
-750 -870 0
-751 -871 0
-752 -872 0
-749 -2025 0
-750 -2026 0
-751 -2027 0
-752 -2028 0
-749 -753 0
-750 -754 0
-751 -755 0
-752 -756 0
-753 -2825 0
-754 -2826 0
-755 -2827 0
-756 -2828 0
-753 -797 0
-754 -798 0
-755 -799 0
-756 -800 0
-753 -1569 0
-754 -1570 0
-755 -1571 0
-756 -1572 0
-753 -4637 0
-754 -4638 0
-755 -4639 0
-756 -4640 0
-753 -2237 0
-754 -2238 0
-755 -2239 0
-756 -2240 0
-753 -3793 0
-754 -3794 0
-755 -3795 0
-756 -3796 0
-753 -1629 0
-754 -1630 0
-755 -1631 0
-756 -1632 0
-753 -873 0
-754 -874 0
-755 -875 0
-756 -876 0
-753 -2033 0
-754 -2034 0
-755 -2035 0
-756 -2036 0
-753 -1653 0
-754 -1654 0
-755 -1655 0
-756 -1656 0
-753 -2045 0
-754 -2046 0
-755 -2047 0
-756 -2048 0
-757 -905 0
-758 -906 0
-759 -907 0
-760 -908 0
-757 -1553 0
-758 -1554 0
-759 -1555 0
-760 -1556 0
-757 -2697 0
-758 -2698 0
-759 -2699 0
-760 -2700 0
-757 -3845 0
-758 -3846 0
-759 -3847 0
-760 -3848 0
-757 -2337 0
-758 -2338 0
-759 -2339 0
-760 -2340 0
-757 -2021 0
-758 -2022 0
-759 -2023 0
-760 -2024 0
-757 -3809 0
-758 -3810 0
-759 -3811 0
-760 -3812 0
-757 -1125 0
-758 -1126 0
-759 -1127 0
-760 -1128 0
-757 -1645 0
-758 -1646 0
-759 -1647 0
-760 -1648 0
-757 -889 0
-758 -890 0
-759 -891 0
-760 -892 0
-761 -3845 0
-762 -3846 0
-763 -3847 0
-764 -3848 0
-761 -905 0
-762 -906 0
-763 -907 0
-764 -908 0
-761 -2065 0
-762 -2066 0
-763 -2067 0
-764 -2068 0
-761 -2581 0
-762 -2582 0
-763 -2583 0
-764 -2584 0
-761 -2701 0
-762 -2702 0
-763 -2703 0
-764 -2704 0
-761 -4869 0
-762 -4870 0
-763 -4871 0
-764 -4872 0
-761 -5137 0
-762 -5138 0
-763 -5139 0
-764 -5140 0
-761 -2349 0
-762 -2350 0
-763 -2351 0
-764 -2352 0
-761 -4157 0
-762 -4158 0
-763 -4159 0
-764 -4160 0
-761 -4797 0
-762 -4798 0
-763 -4799 0
-764 -4800 0
-761 -2889 0
-762 -2890 0
-763 -2891 0
-764 -2892 0
-761 -1141 0
-762 -1142 0
-763 -1143 0
-764 -1144 0
-765 -3853 0
-766 -3854 0
-767 -3855 0
-768 -3856 0
-765 -785 0
-766 -786 0
-767 -787 0
-768 -788 0
-765 -4877 0
-766 -4878 0
-767 -4879 0
-768 -4880 0
-765 -813 0
-766 -814 0
-767 -815 0
-768 -816 0
-765 -4805 0
-766 -4806 0
-767 -4807 0
-768 -4808 0
-765 -845 0
-766 -846 0
-767 -847 0
-768 -848 0
-765 -2273 0
-766 -2274 0
-767 -2275 0
-768 -2276 0
-765 -3817 0
-766 -3818 0
-767 -3819 0
-768 -3820 0
-765 -3949 0
-766 -3950 0
-767 -3951 0
-768 -3952 0
-769 -1793 0
-770 -1794 0
-771 -1795 0
-772 -1796 0
-769 -3337 0
-770 -3338 0
-771 -3339 0
-772 -3340 0
-769 -1677 0
-770 -1678 0
-771 -1679 0
-772 -1680 0
-769 -3865 0
-770 -3866 0
-771 -3867 0
-772 -3868 0
-769 -797 0
-770 -798 0
-771 -799 0
-772 -800 0
-769 -1697 0
-770 -1698 0
-771 -1699 0
-772 -1700 0
-769 -4893 0
-770 -4894 0
-771 -4895 0
-772 -4896 0
-769 -1581 0
-770 -1582 0
-771 -1583 0
-772 -1584 0
-769 -5945 0
-770 -5946 0
-771 -5947 0
-772 -5948 0
-769 -2493 0
-770 -2494 0
-771 -2495 0
-772 -2496 0
-769 -2369 0
-770 -2370 0
-771 -2371 0
-772 -2372 0
-769 -4813 0
-770 -4814 0
-771 -4815 0
-772 -4816 0
-769 -3833 0
-770 -3834 0
-771 -3835 0
-772 -3836 0
-773 -777 0
-774 -778 0
-775 -779 0
-776 -780 0
-773 -905 0
-774 -906 0
-775 -907 0
-776 -908 0
-773 -1545 0
-774 -1546 0
-775 -1547 0
-776 -1548 0
-773 -917 0
-774 -918 0
-775 -919 0
-776 -920 0
-773 -2073 0
-774 -2074 0
-775 -2075 0
-776 -2076 0
-773 -3341 0
-774 -3342 0
-775 -3343 0
-776 -3344 0
-773 -801 0
-774 -802 0
-775 -803 0
-776 -804 0
-773 -929 0
-774 -930 0
-775 -931 0
-776 -932 0
-773 -3877 0
-774 -3878 0
-775 -3879 0
-776 -3880 0
-773 -2865 0
-774 -2866 0
-775 -2867 0
-776 -2868 0
-773 -2373 0
-774 -2374 0
-775 -2375 0
-776 -2376 0
-773 -3021 0
-774 -3022 0
-775 -3023 0
-776 -3024 0
-773 -4469 0
-774 -4470 0
-775 -4471 0
-776 -4472 0
-777 -2053 0
-778 -2054 0
-779 -2055 0
-780 -2056 0
-777 -909 0
-778 -910 0
-779 -911 0
-780 -912 0
-777 -2077 0
-778 -2078 0
-779 -2079 0
-780 -2080 0
-777 -933 0
-778 -934 0
-779 -935 0
-780 -936 0
-777 -1701 0
-778 -1702 0
-779 -1703 0
-780 -1704 0
-777 -1589 0
-778 -1590 0
-779 -1591 0
-780 -1592 0
-777 -2497 0
-778 -2498 0
-779 -2499 0
-780 -2500 0
-777 -2913 0
-778 -2914 0
-779 -2915 0
-780 -2916 0
-777 -1765 0
-778 -1766 0
-779 -1767 0
-780 -1768 0
-777 -1513 0
-778 -1514 0
-779 -1515 0
-780 -1516 0
-777 -1645 0
-778 -1646 0
-779 -1647 0
-780 -1648 0
-781 -3841 0
-782 -3842 0
-783 -3843 0
-784 -3844 0
-781 -785 0
-782 -786 0
-783 -787 0
-784 -788 0
-781 -3353 0
-782 -3354 0
-783 -3355 0
-784 -3356 0
-781 -809 0
-782 -810 0
-783 -811 0
-784 -812 0
-781 -5165 0
-782 -5166 0
-783 -5167 0
-784 -5168 0
-781 -1717 0
-782 -1718 0
-783 -1719 0
-784 -1720 0
-781 -2373 0
-782 -2374 0
-783 -2375 0
-784 -2376 0
-781 -4185 0
-782 -4186 0
-783 -4187 0
-784 -4188 0
-781 -2277 0
-782 -2278 0
-783 -2279 0
-784 -2280 0
-781 -2153 0
-782 -2154 0
-783 -2155 0
-784 -2156 0
-781 -2925 0
-782 -2926 0
-783 -2927 0
-784 -2928 0
-781 -3705 0
-782 -3706 0
-783 -3707 0
-784 -3708 0
-785 -3597 0
-786 -3598 0
-787 -3599 0
-788 -3600 0
-785 -4665 0
-786 -4666 0
-787 -4667 0
-788 -4668 0
-785 -2669 0
-786 -2670 0
-787 -2671 0
-788 -2672 0
-785 -3713 0
-786 -3714 0
-787 -3715 0
-788 -3716 0
-785 -1157 0
-786 -1158 0
-787 -1159 0
-788 -1160 0
-785 -1677 0
-786 -1678 0
-787 -1679 0
-788 -1680 0
-785 -1721 0
-786 -1722 0
-787 -1723 0
-788 -1724 0
-785 -4801 0
-786 -4802 0
-787 -4803 0
-788 -4804 0
-785 -1769 0
-786 -1770 0
-787 -1771 0
-788 -1772 0
-785 -2289 0
-786 -2290 0
-787 -2291 0
-788 -2292 0
-785 -3853 0
-786 -3854 0
-787 -3855 0
-788 -3856 0
-785 -789 0
-786 -790 0
-787 -791 0
-788 -792 0
-785 -805 0
-786 -806 0
-787 -807 0
-788 -808 0
-785 -3877 0
-786 -3878 0
-787 -3879 0
-788 -3880 0
-785 -821 0
-786 -822 0
-787 -823 0
-788 -824 0
-785 -2885 0
-786 -2886 0
-787 -2887 0
-788 -2888 0
-785 -929 0
-786 -930 0
-787 -931 0
-788 -932 0
-789 -2061 0
-790 -2062 0
-791 -2063 0
-792 -2064 0
-789 -3601 0
-790 -3602 0
-791 -3603 0
-792 -3604 0
-789 -5137 0
-790 -5138 0
-791 -5139 0
-792 -5140 0
-789 -2081 0
-790 -2082 0
-791 -2083 0
-792 -2084 0
-789 -2093 0
-790 -2094 0
-791 -2095 0
-792 -2096 0
-789 -5177 0
-790 -5178 0
-791 -5179 0
-792 -5180 0
-789 -1597 0
-790 -1598 0
-791 -1599 0
-792 -1600 0
-789 -4157 0
-790 -4158 0
-791 -4159 0
-792 -4160 0
-789 -2157 0
-790 -2158 0
-791 -2159 0
-792 -2160 0
-789 -3717 0
-790 -3718 0
-791 -3719 0
-792 -3720 0
-789 -1161 0
-790 -1162 0
-791 -1163 0
-792 -1164 0
-789 -1681 0
-790 -1682 0
-791 -1683 0
-792 -1684 0
-789 -1701 0
-790 -1702 0
-791 -1703 0
-792 -1704 0
-789 -1709 0
-790 -1710 0
-791 -1711 0
-792 -1712 0
-789 -4825 0
-790 -4826 0
-791 -4827 0
-792 -4828 0
-789 -1773 0
-790 -1774 0
-791 -1775 0
-792 -1776 0
-789 -3857 0
-790 -3858 0
-791 -3859 0
-792 -3860 0
-789 -797 0
-790 -798 0
-791 -799 0
-792 -800 0
-789 -4901 0
-790 -4902 0
-791 -4903 0
-792 -4904 0
-789 -2889 0
-790 -2890 0
-791 -2891 0
-792 -2892 0
-789 -3441 0
-790 -3442 0
-791 -3443 0
-792 -3444 0
-789 -2933 0
-790 -2934 0
-791 -2935 0
-792 -2936 0
-789 -933 0
-790 -934 0
-791 -935 0
-792 -936 0
-789 -5553 0
-790 -5554 0
-791 -5555 0
-792 -5556 0
-789 -2501 0
-790 -2502 0
-791 -2503 0
-792 -2504 0
-789 -3029 0
-790 -3030 0
-791 -3031 0
-792 -3032 0
-793 -1557 0
-794 -1558 0
-795 -1559 0
-796 -1560 0
-793 -801 0
-794 -802 0
-795 -803 0
-796 -804 0
-793 -4517 0
-794 -4518 0
-795 -4519 0
-796 -4520 0
-793 -2089 0
-794 -2090 0
-795 -2091 0
-796 -2092 0
-793 -3369 0
-794 -3370 0
-795 -3371 0
-796 -3372 0
-793 -4141 0
-794 -4142 0
-795 -4143 0
-796 -4144 0
-793 -4673 0
-794 -4674 0
-795 -4675 0
-796 -4676 0
-793 -1733 0
-794 -1734 0
-795 -1735 0
-796 -1736 0
-793 -3037 0
-794 -3038 0
-795 -3039 0
-796 -3040 0
-797 -3865 0
-798 -3866 0
-799 -3867 0
-800 -3868 0
-797 -3881 0
-798 -3882 0
-799 -3883 0
-800 -3884 0
-797 -941 0
-798 -942 0
-799 -943 0
-800 -944 0
-797 -1713 0
-798 -1714 0
-799 -1715 0
-800 -1716 0
-797 -2093 0
-798 -2094 0
-799 -2095 0
-800 -2096 0
-797 -5561 0
-798 -5562 0
-799 -5563 0
-800 -5564 0
-797 -1605 0
-798 -1606 0
-799 -1607 0
-800 -1608 0
-797 -2381 0
-798 -2382 0
-799 -2383 0
-800 -2384 0
-797 -2897 0
-798 -2898 0
-799 -2899 0
-800 -2900 0
-801 -5141 0
-802 -5142 0
-803 -5143 0
-804 -5144 0
-801 -1569 0
-802 -1570 0
-803 -1571 0
-804 -1572 0
-801 -1609 0
-802 -1610 0
-803 -1611 0
-804 -1612 0
-801 -4681 0
-802 -4682 0
-803 -4683 0
-804 -4684 0
-801 -4177 0
-802 -4178 0
-803 -4179 0
-804 -4180 0
-801 -2669 0
-802 -2670 0
-803 -2671 0
-804 -2672 0
-801 -5801 0
-802 -5802 0
-803 -5803 0
-804 -5804 0
-801 -1741 0
-802 -1742 0
-803 -1743 0
-804 -1744 0
-801 -3377 0
-802 -3378 0
-803 -3379 0
-804 -3380 0
-801 -2901 0
-802 -2902 0
-803 -2903 0
-804 -2904 0
-801 -925 0
-802 -926 0
-803 -927 0
-804 -928 0
-801 -937 0
-802 -938 0
-803 -939 0
-804 -940 0
-801 -4525 0
-802 -4526 0
-803 -4527 0
-804 -4528 0
-801 -3049 0
-802 -3050 0
-803 -3051 0
-804 -3052 0
-801 -1517 0
-802 -1518 0
-803 -1519 0
-804 -1520 0
-801 -1521 0
-802 -1522 0
-803 -1523 0
-804 -1524 0
-805 -5165 0
-806 -5166 0
-807 -5167 0
-808 -5168 0
-805 -2105 0
-806 -2106 0
-807 -2107 0
-808 -2108 0
-805 -4185 0
-806 -4186 0
-807 -4187 0
-808 -4188 0
-805 -4201 0
-806 -4202 0
-807 -4203 0
-808 -4204 0
-805 -2729 0
-806 -2730 0
-807 -2731 0
-808 -2732 0
-805 -1733 0
-806 -1734 0
-807 -1735 0
-808 -1736 0
-805 -2305 0
-806 -2306 0
-807 -2307 0
-808 -2308 0
-805 -3877 0
-806 -3878 0
-807 -3879 0
-808 -3880 0
-805 -809 0
-806 -810 0
-807 -811 0
-808 -812 0
-805 -3397 0
-806 -3398 0
-807 -3399 0
-808 -3400 0
-805 -2925 0
-806 -2926 0
-807 -2927 0
-808 -2928 0
-805 -3449 0
-806 -3450 0
-807 -3451 0
-808 -3452 0
-805 -1513 0
-806 -1514 0
-807 -1515 0
-808 -1516 0
-809 -5153 0
-810 -5154 0
-811 -5155 0
-812 -5156 0
-809 -1701 0
-810 -1702 0
-811 -1703 0
-812 -1704 0
-809 -2089 0
-810 -2090 0
-811 -2091 0
-812 -2092 0
-809 -6065 0
-810 -6066 0
-811 -6067 0
-812 -6068 0
-809 -949 0
-810 -950 0
-811 -951 0
-812 -952 0
-809 -5565 0
-810 -5566 0
-811 -5567 0
-812 -5568 0
-809 -2113 0
-810 -2114 0
-811 -2115 0
-812 -2116 0
-809 -5185 0
-810 -5186 0
-811 -5187 0
-812 -5188 0
-809 -3917 0
-810 -3918 0
-811 -3919 0
-812 -3920 0
-813 -3085 0
-814 -3086 0
-815 -3087 0
-816 -3088 0
-813 -2117 0
-814 -2118 0
-815 -2119 0
-816 -2120 0
-813 -4165 0
-814 -4166 0
-815 -4167 0
-816 -4168 0
-813 -5193 0
-814 -5194 0
-815 -5195 0
-816 -5196 0
-813 -1709 0
-814 -1710 0
-815 -1711 0
-816 -1712 0
-813 -1725 0
-814 -1726 0
-815 -1727 0
-816 -1728 0
-813 -5825 0
-814 -5826 0
-815 -5827 0
-816 -5828 0
-813 -1817 0
-814 -1818 0
-815 -1819 0
-816 -1820 0
-813 -817 0
-814 -818 0
-815 -819 0
-816 -820 0
-813 -821 0
-814 -822 0
-815 -823 0
-816 -824 0
-813 -3893 0
-814 -3894 0
-815 -3895 0
-816 -3896 0
-813 -3917 0
-814 -3918 0
-815 -3919 0
-816 -3920 0
-813 -3413 0
-814 -3414 0
-815 -3415 0
-816 -3416 0
-813 -869 0
-814 -870 0
-815 -871 0
-816 -872 0
-813 -3977 0
-814 -3978 0
-815 -3979 0
-816 -3980 0
-813 -957 0
-814 -958 0
-815 -959 0
-816 -960 0
-813 -5565 0
-814 -5566 0
-815 -5567 0
-816 -5568 0
-817 -2573 0
-818 -2574 0
-819 -2575 0
-820 -2576 0
-817 -3097 0
-818 -3098 0
-819 -3099 0
-820 -3100 0
-817 -2597 0
-818 -2598 0
-819 -2599 0
-820 -2600 0
-817 -2105 0
-818 -2106 0
-819 -2107 0
-820 -2108 0
-817 -4205 0
-818 -4206 0
-819 -4207 0
-820 -4208 0
-817 -2173 0
-818 -2174 0
-819 -2175 0
-820 -2176 0
-817 -1713 0
-818 -1714 0
-819 -1715 0
-820 -1716 0
-817 -5809 0
-818 -5810 0
-819 -5811 0
-820 -5812 0
-817 -1733 0
-818 -1734 0
-819 -1735 0
-820 -1736 0
-817 -1829 0
-818 -1830 0
-819 -1831 0
-820 -1832 0
-817 -3901 0
-818 -3902 0
-819 -3903 0
-820 -3904 0
-817 -1865 0
-818 -1866 0
-819 -1867 0
-820 -1868 0
-817 -3925 0
-818 -3926 0
-819 -3927 0
-820 -3928 0
-817 -2429 0
-818 -2430 0
-819 -2431 0
-820 -2432 0
-817 -2433 0
-818 -2434 0
-819 -2435 0
-820 -2436 0
-817 -2945 0
-818 -2946 0
-819 -2947 0
-820 -2948 0
-817 -3989 0
-818 -3990 0
-819 -3991 0
-820 -3992 0
-817 -953 0
-818 -954 0
-819 -955 0
-820 -956 0
-821 -3121 0
-822 -3122 0
-823 -3123 0
-824 -3124 0
-821 -3637 0
-822 -3638 0
-823 -3639 0
-824 -3640 0
-821 -4189 0
-822 -4190 0
-823 -4191 0
-824 -4192 0
-821 -5229 0
-822 -5230 0
-823 -5231 0
-824 -5232 0
-821 -2189 0
-822 -2190 0
-823 -2191 0
-824 -2192 0
-821 -1705 0
-822 -1706 0
-823 -1707 0
-824 -1708 0
-821 -2761 0
-822 -2762 0
-823 -2763 0
-824 -2764 0
-821 -1749 0
-822 -1750 0
-823 -1751 0
-824 -1752 0
-821 -2317 0
-822 -2318 0
-823 -2319 0
-824 -2320 0
-821 -3917 0
-822 -3918 0
-823 -3919 0
-824 -3920 0
-821 -4945 0
-822 -4946 0
-823 -4947 0
-824 -4948 0
-821 -3933 0
-822 -3934 0
-823 -3935 0
-824 -3936 0
-821 -3993 0
-822 -3994 0
-823 -3995 0
-824 -3996 0
-825 -6017 0
-826 -6018 0
-827 -6019 0
-828 -6020 0
-825 -1557 0
-826 -1558 0
-827 -1559 0
-828 -1560 0
-825 -2609 0
-826 -2610 0
-827 -2611 0
-828 -2612 0
-825 -4145 0
-826 -4146 0
-827 -4147 0
-828 -4148 0
-825 -1721 0
-826 -1722 0
-827 -1723 0
-828 -1724 0
-825 -5049 0
-826 -5050 0
-827 -5051 0
-828 -5052 0
-825 -3649 0
-826 -3650 0
-827 -3651 0
-828 -3652 0
-825 -837 0
-826 -838 0
-827 -839 0
-828 -840 0
-825 -2125 0
-826 -2126 0
-827 -2127 0
-828 -2128 0
-825 -1881 0
-826 -1882 0
-827 -1883 0
-828 -1884 0
-825 -2137 0
-826 -2138 0
-827 -2139 0
-828 -2140 0
-825 -1005 0
-826 -1006 0
-827 -1007 0
-828 -1008 0
-829 -5653 0
-830 -5654 0
-831 -5655 0
-832 -5656 0
-829 -1617 0
-830 -1618 0
-831 -1619 0
-832 -1620 0
-829 -2129 0
-830 -2130 0
-831 -2131 0
-832 -2132 0
-829 -5233 0
-830 -5234 0
-831 -5235 0
-832 -5236 0
-829 -4209 0
-830 -4210 0
-831 -4211 0
-832 -4212 0
-829 -4241 0
-830 -4242 0
-831 -4243 0
-832 -4244 0
-829 -1717 0
-830 -1718 0
-831 -1719 0
-832 -1720 0
-829 -1733 0
-830 -1734 0
-831 -1735 0
-832 -1736 0
-829 -5829 0
-830 -5830 0
-831 -5831 0
-832 -5832 0
-829 -5841 0
-830 -5842 0
-831 -5843 0
-832 -5844 0
-829 -2781 0
-830 -2782 0
-831 -2783 0
-832 -2784 0
-829 -833 0
-830 -834 0
-831 -835 0
-832 -836 0
-829 -2457 0
-830 -2458 0
-831 -2459 0
-832 -2460 0
-829 -2973 0
-830 -2974 0
-831 -2975 0
-832 -2976 0
-829 -2981 0
-830 -2982 0
-831 -2983 0
-832 -2984 0
-833 -2141 0
-834 -2142 0
-835 -2143 0
-836 -2144 0
-833 -4245 0
-834 -4246 0
-835 -4247 0
-836 -4248 0
-833 -1565 0
-834 -1566 0
-835 -1567 0
-836 -1568 0
-833 -2209 0
-834 -2210 0
-835 -2211 0
-836 -2212 0
-833 -2461 0
-834 -2462 0
-835 -2463 0
-836 -2464 0
-833 -1737 0
-834 -1738 0
-835 -1739 0
-836 -1740 0
-833 -5201 0
-834 -5202 0
-835 -5203 0
-836 -5204 0
-833 -1749 0
-834 -1750 0
-835 -1751 0
-836 -1752 0
-833 -1885 0
-834 -1886 0
-835 -1887 0
-836 -1888 0
-833 -2785 0
-834 -2786 0
-835 -2787 0
-836 -2788 0
-833 -4213 0
-834 -4214 0
-835 -4215 0
-836 -4216 0
-837 -4225 0
-838 -4226 0
-839 -4227 0
-840 -4228 0
-837 -3721 0
-838 -3722 0
-839 -3723 0
-840 -3724 0
-837 -2585 0
-838 -2586 0
-839 -2587 0
-840 -2588 0
-837 -937 0
-838 -938 0
-839 -939 0
-840 -940 0
-837 -1581 0
-838 -1582 0
-839 -1583 0
-840 -1584 0
-837 -2989 0
-838 -2990 0
-839 -2991 0
-840 -2992 0
-837 -2237 0
-838 -2238 0
-839 -2239 0
-840 -2240 0
-837 -1733 0
-838 -1734 0
-839 -1735 0
-840 -1736 0
-837 -1861 0
-838 -1862 0
-839 -1863 0
-840 -1864 0
-837 -4981 0
-838 -4982 0
-839 -4983 0
-840 -4984 0
-837 -2149 0
-838 -2150 0
-839 -2151 0
-840 -2152 0
-837 -2797 0
-838 -2798 0
-839 -2799 0
-840 -2800 0
-841 -2701 0
-842 -2702 0
-843 -2703 0
-844 -2704 0
-841 -1813 0
-842 -1814 0
-843 -1815 0
-844 -1816 0
-841 -1557 0
-842 -1558 0
-843 -1559 0
-844 -1560 0
-841 -2337 0
-842 -2338 0
-843 -2339 0
-844 -2340 0
-841 -2609 0
-842 -2610 0
-843 -2611 0
-844 -2612 0
-841 -4273 0
-842 -4274 0
-843 -4275 0
-844 -4276 0
-841 -845 0
-842 -846 0
-843 -847 0
-844 -848 0
-841 -1873 0
-842 -1874 0
-843 -1875 0
-844 -1876 0
-841 -993 0
-842 -994 0
-843 -995 0
-844 -996 0
-845 -2189 0
-846 -2190 0
-847 -2191 0
-848 -2192 0
-845 -1569 0
-846 -1570 0
-847 -1571 0
-848 -1572 0
-845 -1825 0
-846 -1826 0
-847 -1827 0
-848 -1828 0
-845 -2349 0
-846 -2350 0
-847 -2351 0
-848 -2352 0
-845 -3001 0
-846 -3002 0
-847 -3003 0
-848 -3004 0
-845 -849 0
-846 -850 0
-847 -851 0
-848 -852 0
-845 -869 0
-846 -870 0
-847 -871 0
-848 -872 0
-845 -3821 0
-846 -3822 0
-847 -3823 0
-848 -3824 0
-845 -1781 0
-846 -1782 0
-847 -1783 0
-848 -1784 0
-849 -2185 0
-850 -2186 0
-851 -2187 0
-852 -2188 0
-849 -3949 0
-850 -3950 0
-851 -3951 0
-852 -3952 0
-849 -1573 0
-850 -1574 0
-851 -1575 0
-852 -1576 0
-849 -1829 0
-850 -1830 0
-851 -1831 0
-852 -1832 0
-849 -2353 0
-850 -2354 0
-851 -2355 0
-852 -2356 0
-849 -2613 0
-850 -2614 0
-851 -2615 0
-852 -2616 0
-849 -1645 0
-850 -1646 0
-851 -1647 0
-852 -1648 0
-849 -5981 0
-850 -5982 0
-851 -5983 0
-852 -5984 0
-849 -3825 0
-850 -3826 0
-851 -3827 0
-852 -3828 0
-853 -1025 0
-854 -1026 0
-855 -1027 0
-856 -1028 0
-853 -2185 0
-854 -2186 0
-855 -2187 0
-856 -2188 0
-853 -1829 0
-854 -1830 0
-855 -1831 0
-856 -1832 0
-853 -2213 0
-854 -2214 0
-855 -2215 0
-856 -2216 0
-853 -2637 0
-854 -2638 0
-855 -2639 0
-856 -2640 0
-853 -1493 0
-854 -1494 0
-855 -1495 0
-856 -1496 0
-853 -1001 0
-854 -1002 0
-855 -1003 0
-856 -1004 0
-853 -1645 0
-854 -1646 0
-855 -1647 0
-856 -1648 0
-853 -3965 0
-854 -3966 0
-855 -3967 0
-856 -3968 0
-857 -2817 0
-858 -2818 0
-859 -2819 0
-860 -2820 0
-857 -4101 0
-858 -4102 0
-859 -4103 0
-860 -4104 0
-857 -905 0
-858 -906 0
-859 -907 0
-860 -908 0
-857 -4877 0
-858 -4878 0
-859 -4879 0
-860 -4880 0
-857 -1509 0
-858 -1510 0
-859 -1511 0
-860 -1512 0
-857 -2221 0
-858 -2222 0
-859 -2223 0
-860 -2224 0
-857 -1893 0
-858 -1894 0
-859 -1895 0
-860 -1896 0
-857 -3037 0
-858 -3038 0
-859 -3039 0
-860 -3040 0
-857 -4289 0
-858 -4290 0
-859 -4291 0
-860 -4292 0
-857 -973 0
-858 -974 0
-859 -975 0
-860 -976 0
-857 -2385 0
-858 -2386 0
-859 -2387 0
-860 -2388 0
-857 -1877 0
-858 -1878 0
-859 -1879 0
-860 -1880 0
-857 -861 0
-858 -862 0
-859 -863 0
-860 -864 0
-857 -1777 0
-858 -1778 0
-859 -1779 0
-860 -1780 0
-857 -1017 0
-858 -1018 0
-859 -1019 0
-860 -1020 0
-861 -1549 0
-862 -1550 0
-863 -1551 0
-864 -1552 0
-861 -1561 0
-862 -1562 0
-863 -1563 0
-864 -1564 0
-861 -2641 0
-862 -2642 0
-863 -2643 0
-864 -2644 0
-861 -1621 0
-862 -1622 0
-863 -1623 0
-864 -1624 0
-861 -4717 0
-862 -4718 0
-863 -4719 0
-864 -4720 0
-861 -2221 0
-862 -2222 0
-863 -2223 0
-864 -2224 0
-861 -2233 0
-862 -2234 0
-863 -2235 0
-864 -2236 0
-861 -2825 0
-862 -2826 0
-863 -2827 0
-864 -2828 0
-861 -865 0
-862 -866 0
-863 -867 0
-864 -868 0
-861 -869 0
-862 -870 0
-863 -871 0
-864 -872 0
-861 -1905 0
-862 -1906 0
-863 -1907 0
-864 -1908 0
-861 -913 0
-862 -914 0
-863 -915 0
-864 -916 0
-861 -3501 0
-862 -3502 0
-863 -3503 0
-864 -3504 0
-861 -3013 0
-862 -3014 0
-863 -3015 0
-864 -3016 0
-861 -3049 0
-862 -3050 0
-863 -3051 0
-864 -3052 0
-861 -4589 0
-862 -4590 0
-863 -4591 0
-864 -4592 0
-861 -2545 0
-862 -2546 0
-863 -2547 0
-864 -2548 0
-861 -1013 0
-862 -1014 0
-863 -1015 0
-864 -1016 0
-861 -2553 0
-862 -2554 0
-863 -2555 0
-864 -2556 0
-865 -1029 0
-866 -1030 0
-867 -1031 0
-868 -1032 0
-865 -1037 0
-866 -1038 0
-867 -1039 0
-868 -1040 0
-865 -1557 0
-866 -1558 0
-867 -1559 0
-868 -1560 0
-865 -1573 0
-866 -1574 0
-867 -1575 0
-868 -1576 0
-865 -1637 0
-866 -1638 0
-867 -1639 0
-868 -1640 0
-865 -1685 0
-866 -1686 0
-867 -1687 0
-868 -1688 0
-865 -2197 0
-866 -2198 0
-867 -2199 0
-868 -2200 0
-865 -2233 0
-866 -2234 0
-867 -2235 0
-868 -2236 0
-865 -3261 0
-866 -3262 0
-867 -3263 0
-868 -3264 0
-865 -4281 0
-866 -4282 0
-867 -4283 0
-868 -4284 0
-865 -1769 0
-866 -1770 0
-867 -1771 0
-868 -1772 0
-865 -1789 0
-866 -1790 0
-867 -1791 0
-868 -1792 0
-865 -1845 0
-866 -1846 0
-867 -1847 0
-868 -1848 0
-865 -1889 0
-866 -1890 0
-867 -1891 0
-868 -1892 0
-865 -1913 0
-866 -1914 0
-867 -1915 0
-868 -1916 0
-865 -3985 0
-866 -3986 0
-867 -3987 0
-868 -3988 0
-865 -3505 0
-866 -3506 0
-867 -3507 0
-868 -3508 0
-865 -3021 0
-866 -3022 0
-867 -3023 0
-868 -3024 0
-865 -2549 0
-866 -2550 0
-867 -2551 0
-868 -2552 0
-865 -2557 0
-866 -2558 0
-867 -2559 0
-868 -2560 0
-869 -1545 0
-870 -1546 0
-871 -1547 0
-872 -1548 0
-869 -1605 0
-870 -1606 0
-871 -1607 0
-872 -1608 0
-869 -3713 0
-870 -3714 0
-871 -3715 0
-872 -3716 0
-869 -3725 0
-870 -3726 0
-871 -3727 0
-872 -3728 0
-869 -1693 0
-870 -1694 0
-871 -1695 0
-872 -1696 0
-869 -4289 0
-870 -4290 0
-871 -4291 0
-872 -4292 0
-869 -2253 0
-870 -2254 0
-871 -2255 0
-872 -2256 0
-869 -2257 0
-870 -2258 0
-871 -2259 0
-872 -2260 0
-869 -4309 0
-870 -4310 0
-871 -4311 0
-872 -4312 0
-869 -1777 0
-870 -1778 0
-871 -1779 0
-872 -1780 0
-869 -1797 0
-870 -1798 0
-871 -1799 0
-872 -1800 0
-869 -4889 0
-870 -4890 0
-871 -4891 0
-872 -4892 0
-869 -4909 0
-870 -4910 0
-871 -4911 0
-872 -4912 0
-869 -2409 0
-870 -2410 0
-871 -2411 0
-872 -2412 0
-869 -1909 0
-870 -1910 0
-871 -1911 0
-872 -1912 0
-869 -933 0
-870 -934 0
-871 -935 0
-872 -936 0
-869 -3037 0
-870 -3038 0
-871 -3039 0
-872 -3040 0
-869 -2485 0
-870 -2486 0
-871 -2487 0
-872 -2488 0
-869 -3509 0
-870 -3510 0
-871 -3511 0
-872 -3512 0
-869 -1993 0
-870 -1994 0
-871 -1995 0
-872 -1996 0
-869 -5593 0
-870 -5594 0
-871 -5595 0
-872 -5596 0
-869 -2525 0
-870 -2526 0
-871 -2527 0
-872 -2528 0
-869 -1517 0
-870 -1518 0
-871 -1519 0
-872 -1520 0
-873 -1561 0
-874 -1562 0
-875 -1563 0
-876 -1564 0
-873 -1829 0
-874 -1830 0
-875 -1831 0
-876 -1832 0
-873 -5029 0
-874 -5030 0
-875 -5031 0
-876 -5032 0
-873 -1709 0
-874 -1710 0
-875 -1711 0
-876 -1712 0
-873 -2685 0
-874 -2686 0
-875 -2687 0
-876 -2688 0
-873 -2269 0
-874 -2270 0
-875 -2271 0
-876 -2272 0
-873 -4333 0
-874 -4334 0
-875 -4335 0
-876 -4336 0
-873 -5597 0
-874 -5598 0
-875 -5599 0
-876 -5600 0
-877 -1045 0
-878 -1046 0
-879 -1047 0
-880 -1048 0
-877 -1053 0
-878 -1054 0
-879 -1055 0
-880 -1056 0
-877 -3997 0
-878 -3998 0
-879 -3999 0
-880 -4000 0
-877 -1829 0
-878 -1830 0
-879 -1831 0
-880 -1832 0
-877 -4009 0
-878 -4010 0
-879 -4011 0
-880 -4012 0
-877 -2221 0
-878 -2222 0
-879 -2223 0
-880 -2224 0
-877 -5593 0
-878 -5594 0
-879 -5595 0
-880 -5596 0
-877 -2653 0
-878 -2654 0
-879 -2655 0
-880 -2656 0
-877 -2021 0
-878 -2022 0
-879 -2023 0
-880 -2024 0
-881 -905 0
-882 -906 0
-883 -907 0
-884 -908 0
-881 -3093 0
-882 -3094 0
-883 -3095 0
-884 -3096 0
-881 -1049 0
-882 -1050 0
-883 -1051 0
-884 -1052 0
-881 -2853 0
-882 -2854 0
-883 -2855 0
-884 -2856 0
-881 -4005 0
-882 -4006 0
-883 -4007 0
-884 -4008 0
-881 -5701 0
-882 -5702 0
-883 -5703 0
-884 -5704 0
-881 -2273 0
-882 -2274 0
-883 -2275 0
-884 -2276 0
-881 -2661 0
-882 -2662 0
-883 -2663 0
-884 -2664 0
-881 -4321 0
-882 -4322 0
-883 -4323 0
-884 -4324 0
-881 -885 0
-882 -886 0
-883 -887 0
-884 -888 0
-885 -3073 0
-886 -3074 0
-887 -3075 0
-888 -3076 0
-885 -3101 0
-886 -3102 0
-887 -3103 0
-888 -3104 0
-885 -2617 0
-886 -2618 0
-887 -2619 0
-888 -2620 0
-885 -2673 0
-886 -2674 0
-887 -2675 0
-888 -2676 0
-885 -4745 0
-886 -4746 0
-887 -4747 0
-888 -4748 0
-885 -2273 0
-886 -2274 0
-887 -2275 0
-888 -2276 0
-885 -4333 0
-886 -4334 0
-887 -4335 0
-888 -4336 0
-885 -4393 0
-886 -4394 0
-887 -4395 0
-888 -4396 0
-885 -1901 0
-886 -1902 0
-887 -1903 0
-888 -1904 0
-885 -913 0
-886 -914 0
-887 -915 0
-888 -916 0
-885 -2453 0
-886 -2454 0
-887 -2455 0
-888 -2456 0
-885 -2521 0
-886 -2522 0
-887 -2523 0
-888 -2524 0
-889 -1665 0
-890 -1666 0
-891 -1667 0
-892 -1668 0
-889 -1813 0
-890 -1814 0
-891 -1815 0
-892 -1816 0
-889 -3105 0
-890 -3106 0
-891 -3107 0
-892 -3108 0
-889 -4133 0
-890 -4134 0
-891 -4135 0
-892 -4136 0
-889 -1065 0
-890 -1066 0
-891 -1067 0
-892 -1068 0
-889 -1961 0
-890 -1962 0
-891 -1963 0
-892 -1964 0
-889 -1845 0
-890 -1846 0
-891 -1847 0
-892 -1848 0
-889 -3065 0
-890 -3066 0
-891 -3067 0
-892 -3068 0
-889 -4025 0
-890 -4026 0
-891 -4027 0
-892 -4028 0
-889 -1089 0
-890 -1090 0
-891 -1091 0
-892 -1092 0
-889 -2625 0
-890 -2626 0
-891 -2627 0
-892 -2628 0
-889 -3529 0
-890 -3530 0
-891 -3531 0
-892 -3532 0
-889 -3281 0
-890 -3282 0
-891 -3283 0
-892 -3284 0
-889 -3937 0
-890 -3938 0
-891 -3939 0
-892 -3940 0
-889 -1657 0
-890 -1658 0
-891 -1659 0
-892 -1660 0
-893 -897 0
-894 -898 0
-895 -899 0
-896 -900 0
-893 -905 0
-894 -906 0
-895 -907 0
-896 -908 0
-893 -1057 0
-894 -1058 0
-895 -1059 0
-896 -1060 0
-893 -3117 0
-894 -3118 0
-895 -3119 0
-896 -3120 0
-893 -4017 0
-894 -4018 0
-895 -4019 0
-896 -4020 0
-893 -4401 0
-894 -4402 0
-895 -4403 0
-896 -4404 0
-893 -5293 0
-894 -5294 0
-895 -5295 0
-896 -5296 0
-893 -2881 0
-894 -2882 0
-895 -2883 0
-896 -2884 0
-893 -5953 0
-894 -5954 0
-895 -5955 0
-896 -5956 0
-893 -2277 0
-894 -2278 0
-895 -2279 0
-896 -2280 0
-897 -909 0
-898 -910 0
-899 -911 0
-900 -912 0
-897 -1301 0
-898 -1302 0
-899 -1303 0
-900 -1304 0
-897 -921 0
-898 -922 0
-899 -923 0
-900 -924 0
-897 -4001 0
-898 -4002 0
-899 -4003 0
-900 -4004 0
-897 -3121 0
-898 -3122 0
-899 -3123 0
-900 -3124 0
-897 -4273 0
-898 -4274 0
-899 -4275 0
-900 -4276 0
-897 -953 0
-898 -954 0
-899 -955 0
-900 -956 0
-897 -2489 0
-898 -2490 0
-899 -2491 0
-900 -2492 0
-897 -2617 0
-898 -2618 0
-899 -2619 0
-900 -2620 0
-897 -5297 0
-898 -5298 0
-899 -5299 0
-900 -5300 0
-897 -2281 0
-898 -2282 0
-899 -2283 0
-900 -2284 0
-897 -1885 0
-898 -1886 0
-899 -1887 0
-900 -1888 0
-897 -1901 0
-898 -1902 0
-899 -1903 0
-900 -1904 0
-901 -2561 0
-902 -2562 0
-903 -2563 0
-904 -2564 0
-901 -905 0
-902 -906 0
-903 -907 0
-904 -908 0
-901 -5645 0
-902 -5646 0
-903 -5647 0
-904 -5648 0
-901 -1061 0
-902 -1062 0
-903 -1063 0
-904 -1064 0
-901 -4141 0
-902 -4142 0
-903 -4143 0
-904 -4144 0
-901 -3129 0
-902 -3130 0
-903 -3131 0
-904 -3132 0
-901 -2621 0
-902 -2622 0
-903 -2623 0
-904 -2624 0
-901 -2885 0
-902 -2886 0
-903 -2887 0
-904 -2888 0
-901 -3537 0
-902 -3538 0
-903 -3539 0
-904 -3540 0
-901 -993 0
-902 -994 0
-903 -995 0
-904 -996 0
-901 -4349 0
-902 -4350 0
-903 -4351 0
-904 -4352 0
-905 -3081 0
-906 -3082 0
-907 -3083 0
-908 -3084 0
-905 -1065 0
-906 -1066 0
-907 -1067 0
-908 -1068 0
-905 -2621 0
-906 -2622 0
-907 -2623 0
-908 -2624 0
-905 -1089 0
-906 -1090 0
-907 -1091 0
-908 -1092 0
-905 -2625 0
-906 -2626 0
-907 -2627 0
-908 -2628 0
-905 -3133 0
-906 -3134 0
-907 -3135 0
-908 -3136 0
-905 -1613 0
-906 -1614 0
-907 -1615 0
-908 -1616 0
-905 -2677 0
-906 -2678 0
-907 -2679 0
-908 -2680 0
-905 -5281 0
-906 -5282 0
-907 -5283 0
-908 -5284 0
-905 -1717 0
-906 -1718 0
-907 -1719 0
-908 -1720 0
-905 -5301 0
-906 -5302 0
-907 -5303 0
-908 -5304 0
-905 -2773 0
-906 -2774 0
-907 -2775 0
-908 -2776 0
-905 -2277 0
-906 -2278 0
-907 -2279 0
-908 -2280 0
-905 -2289 0
-906 -2290 0
-907 -2291 0
-908 -2292 0
-905 -5873 0
-906 -5874 0
-907 -5875 0
-908 -5876 0
-905 -4353 0
-906 -4354 0
-907 -4355 0
-908 -4356 0
-905 -5881 0
-906 -5882 0
-907 -5883 0
-908 -5884 0
-905 -1309 0
-906 -1310 0
-907 -1311 0
-908 -1312 0
-905 -4389 0
-906 -4390 0
-907 -4391 0
-908 -4392 0
-905 -1841 0
-906 -1842 0
-907 -1843 0
-908 -1844 0
-905 -1853 0
-906 -1854 0
-907 -1855 0
-908 -1856 0
-905 -4405 0
-906 -4406 0
-907 -4407 0
-908 -4408 0
-905 -2889 0
-906 -2890 0
-907 -2891 0
-908 -2892 0
-905 -1873 0
-906 -1874 0
-907 -1875 0
-908 -1876 0
-905 -1889 0
-906 -1890 0
-907 -1891 0
-908 -1892 0
-905 -1921 0
-906 -1922 0
-907 -1923 0
-908 -1924 0
-905 -909 0
-906 -910 0
-907 -911 0
-908 -912 0
-905 -913 0
-906 -914 0
-907 -915 0
-908 -916 0
-905 -925 0
-906 -926 0
-907 -927 0
-908 -928 0
-905 -1953 0
-906 -1954 0
-907 -1955 0
-908 -1956 0
-905 -4005 0
-906 -4006 0
-907 -4007 0
-908 -4008 0
-905 -4025 0
-906 -4026 0
-907 -4027 0
-908 -4028 0
-905 -961 0
-906 -962 0
-907 -963 0
-908 -964 0
-905 -1525 0
-906 -1526 0
-907 -1527 0
-908 -1528 0
-905 -2005 0
-906 -2006 0
-907 -2007 0
-908 -2008 0
-905 -1509 0
-906 -1510 0
-907 -1511 0
-908 -1512 0
-905 -1513 0
-906 -1514 0
-907 -1515 0
-908 -1516 0
-909 -3085 0
-910 -3086 0
-911 -3087 0
-912 -3088 0
-909 -1069 0
-910 -1070 0
-911 -1071 0
-912 -1072 0
-909 -2625 0
-910 -2626 0
-911 -2627 0
-912 -2628 0
-909 -2629 0
-910 -2630 0
-911 -2631 0
-912 -2632 0
-909 -3137 0
-910 -3138 0
-911 -3139 0
-912 -3140 0
-909 -1105 0
-910 -1106 0
-911 -1107 0
-912 -1108 0
-909 -1705 0
-910 -1706 0
-911 -1707 0
-912 -1708 0
-909 -2281 0
-910 -2282 0
-911 -2283 0
-912 -2284 0
-909 -2321 0
-910 -2322 0
-911 -2323 0
-912 -2324 0
-909 -4929 0
-910 -4930 0
-911 -4931 0
-912 -4932 0
-909 -5957 0
-910 -5958 0
-911 -5959 0
-912 -5960 0
-909 -2893 0
-910 -2894 0
-911 -2895 0
-912 -2896 0
-909 -1909 0
-910 -1910 0
-911 -1911 0
-912 -1912 0
-909 -4009 0
-910 -4010 0
-911 -4011 0
-912 -4012 0
-909 -5045 0
-910 -5046 0
-911 -5047 0
-912 -5048 0
-909 -4029 0
-910 -4030 0
-911 -4031 0
-912 -4032 0
-909 -2497 0
-910 -2498 0
-911 -2499 0
-912 -2500 0
-909 -3541 0
-910 -3542 0
-911 -3543 0
-912 -3544 0
-913 -2561 0
-914 -2562 0
-915 -2563 0
-916 -2564 0
-913 -3093 0
-914 -3094 0
-915 -3095 0
-916 -3096 0
-913 -4145 0
-914 -4146 0
-915 -4147 0
-916 -4148 0
-913 -1077 0
-914 -1078 0
-915 -1079 0
-916 -1080 0
-913 -2633 0
-914 -2634 0
-915 -2635 0
-916 -2636 0
-913 -3145 0
-914 -3146 0
-915 -3147 0
-916 -3148 0
-913 -3669 0
-914 -3670 0
-915 -3671 0
-916 -3672 0
-913 -1721 0
-914 -1722 0
-915 -1723 0
-916 -1724 0
-913 -4321 0
-914 -4322 0
-915 -4323 0
-916 -4324 0
-913 -2289 0
-914 -2290 0
-915 -2291 0
-916 -2292 0
-913 -4361 0
-914 -4362 0
-915 -4363 0
-916 -4364 0
-913 -1857 0
-914 -1858 0
-915 -1859 0
-916 -1860 0
-913 -2897 0
-914 -2898 0
-915 -2899 0
-916 -2900 0
-913 -1929 0
-914 -1930 0
-915 -1931 0
-916 -1932 0
-913 -933 0
-914 -934 0
-915 -935 0
-916 -936 0
-913 -1961 0
-914 -1962 0
-915 -1963 0
-916 -1964 0
-913 -5049 0
-914 -5050 0
-915 -5051 0
-916 -5052 0
-913 -4037 0
-914 -4038 0
-915 -4039 0
-916 -4040 0
-913 -4053 0
-914 -4054 0
-915 -4055 0
-916 -4056 0
-913 -2009 0
-914 -2010 0
-915 -2011 0
-916 -2012 0
-913 -3545 0
-914 -3546 0
-915 -3547 0
-916 -3548 0
-913 -3561 0
-914 -3562 0
-915 -3563 0
-916 -3564 0
-917 -4621 0
-918 -4622 0
-919 -4623 0
-920 -4624 0
-917 -5273 0
-918 -5274 0
-919 -5275 0
-920 -5276 0
-917 -1065 0
-918 -1066 0
-919 -1067 0
-920 -1068 0
-917 -1581 0
-918 -1582 0
-919 -1583 0
-920 -1584 0
-917 -1081 0
-918 -1082 0
-919 -1083 0
-920 -1084 0
-917 -1725 0
-918 -1726 0
-919 -1727 0
-920 -1728 0
-917 -1737 0
-918 -1738 0
-919 -1739 0
-920 -1740 0
-917 -2641 0
-918 -2642 0
-919 -2643 0
-920 -2644 0
-921 -1929 0
-922 -1930 0
-923 -1931 0
-924 -1932 0
-921 -2325 0
-922 -2326 0
-923 -2327 0
-924 -2328 0
-921 -4149 0
-922 -4150 0
-923 -4151 0
-924 -4152 0
-921 -5061 0
-922 -5062 0
-923 -5063 0
-924 -5064 0
-921 -4941 0
-922 -4942 0
-923 -4943 0
-924 -4944 0
-921 -4053 0
-922 -4054 0
-923 -4055 0
-924 -4056 0
-921 -1913 0
-922 -1914 0
-923 -1915 0
-924 -1916 0
-925 -3117 0
-926 -3118 0
-927 -3119 0
-928 -3120 0
-925 -1093 0
-926 -1094 0
-927 -1095 0
-928 -1096 0
-925 -3169 0
-926 -3170 0
-927 -3171 0
-928 -3172 0
-925 -1685 0
-926 -1686 0
-927 -1687 0
-928 -1688 0
-925 -5293 0
-926 -5294 0
-927 -5295 0
-928 -5296 0
-925 -1725 0
-926 -1726 0
-927 -1727 0
-928 -1728 0
-925 -5317 0
-926 -5318 0
-927 -5319 0
-928 -5320 0
-925 -3297 0
-926 -3298 0
-927 -3299 0
-928 -3300 0
-925 -2301 0
-926 -2302 0
-927 -2303 0
-928 -2304 0
-925 -2305 0
-926 -2306 0
-927 -2307 0
-928 -2308 0
-925 -4401 0
-926 -4402 0
-927 -4403 0
-928 -4404 0
-925 -4925 0
-926 -4926 0
-927 -4927 0
-928 -4928 0
-925 -4945 0
-926 -4946 0
-927 -4947 0
-928 -4948 0
-925 -2929 0
-926 -2930 0
-927 -2931 0
-928 -2932 0
-925 -5517 0
-926 -5518 0
-927 -5519 0
-928 -5520 0
-925 -1937 0
-926 -1938 0
-927 -1939 0
-928 -1940 0
-925 -2461 0
-926 -2462 0
-927 -2463 0
-928 -2464 0
-925 -933 0
-926 -934 0
-927 -935 0
-928 -936 0
-925 -4025 0
-926 -4026 0
-927 -4027 0
-928 -4028 0
-925 -2025 0
-926 -2026 0
-927 -2027 0
-928 -2028 0
-929 -4629 0
-930 -4630 0
-931 -4631 0
-932 -4632 0
-929 -3129 0
-930 -3130 0
-931 -3131 0
-932 -3132 0
-929 -1089 0
-930 -1090 0
-931 -1091 0
-932 -1092 0
-929 -2641 0
-930 -2642 0
-931 -2643 0
-932 -2644 0
-929 -3177 0
-930 -3178 0
-931 -3179 0
-932 -3180 0
-929 -1729 0
-930 -1730 0
-931 -1731 0
-932 -1732 0
-929 -5325 0
-930 -5326 0
-931 -5327 0
-932 -5328 0
-929 -2789 0
-930 -2790 0
-931 -2791 0
-932 -2792 0
-929 -4349 0
-930 -4350 0
-931 -4351 0
-932 -4352 0
-929 -4933 0
-930 -4934 0
-931 -4935 0
-932 -4936 0
-929 -2465 0
-930 -2466 0
-931 -2467 0
-932 -2468 0
-929 -933 0
-930 -934 0
-931 -935 0
-932 -936 0
-929 -1981 0
-930 -1982 0
-931 -1983 0
-932 -1984 0
-929 -4033 0
-930 -4034 0
-931 -4035 0
-932 -4036 0
-929 -2029 0
-930 -2030 0
-931 -2031 0
-932 -2032 0
-929 -3569 0
-930 -3570 0
-931 -3571 0
-932 -3572 0
-933 -1529 0
-934 -1530 0
-935 -1531 0
-936 -1532 0
-933 -3133 0
-934 -3134 0
-935 -3135 0
-936 -3136 0
-933 -1097 0
-934 -1098 0
-935 -1099 0
-936 -1100 0
-933 -1609 0
-934 -1610 0
-935 -1611 0
-936 -1612 0
-933 -2641 0
-934 -2642 0
-935 -2643 0
-936 -2644 0
-933 -1621 0
-934 -1622 0
-935 -1623 0
-936 -1624 0
-933 -2645 0
-934 -2646 0
-935 -2647 0
-936 -2648 0
-933 -3181 0
-934 -3182 0
-935 -3183 0
-936 -3184 0
-933 -1689 0
-934 -1690 0
-935 -1691 0
-936 -1692 0
-933 -5301 0
-934 -5302 0
-935 -5303 0
-936 -5304 0
-933 -1733 0
-934 -1734 0
-935 -1735 0
-936 -1736 0
-933 -5329 0
-934 -5330 0
-935 -5331 0
-936 -5332 0
-933 -2797 0
-934 -2798 0
-935 -2799 0
-936 -2800 0
-933 -5873 0
-934 -5874 0
-935 -5875 0
-936 -5876 0
-933 -2305 0
-934 -2306 0
-935 -2307 0
-936 -2308 0
-933 -2309 0
-934 -2310 0
-935 -2311 0
-936 -2312 0
-933 -4353 0
-934 -4354 0
-935 -4355 0
-936 -4356 0
-933 -4385 0
-934 -4386 0
-935 -4387 0
-936 -4388 0
-933 -4405 0
-934 -4406 0
-935 -4407 0
-936 -4408 0
-933 -1853 0
-934 -1854 0
-935 -1855 0
-936 -1856 0
-933 -1861 0
-934 -1862 0
-935 -1863 0
-936 -1864 0
-933 -1869 0
-934 -1870 0
-935 -1871 0
-936 -1872 0
-933 -1889 0
-934 -1890 0
-935 -1891 0
-936 -1892 0
-933 -2933 0
-934 -2934 0
-935 -2935 0
-936 -2936 0
-933 -1949 0
-934 -1950 0
-935 -1951 0
-936 -1952 0
-933 -937 0
-934 -938 0
-935 -939 0
-936 -940 0
-933 -941 0
-934 -942 0
-935 -943 0
-936 -944 0
-933 -945 0
-934 -946 0
-935 -947 0
-936 -948 0
-933 -1973 0
-934 -1974 0
-935 -1975 0
-936 -1976 0
-933 -2033 0
-934 -2034 0
-935 -2035 0
-936 -2036 0
-933 -4037 0
-934 -4038 0
-935 -4039 0
-936 -4040 0
-933 -969 0
-934 -970 0
-935 -971 0
-936 -972 0
-933 -4061 0
-934 -4062 0
-935 -4063 0
-936 -4064 0
-933 -1517 0
-934 -1518 0
-935 -1519 0
-936 -1520 0
-933 -1521 0
-934 -1522 0
-935 -1523 0
-936 -1524 0
-937 -2469 0
-938 -2470 0
-939 -2471 0
-940 -2472 0
-937 -3137 0
-938 -3138 0
-939 -3139 0
-940 -3140 0
-937 -1737 0
-938 -1738 0
-939 -1739 0
-940 -1740 0
-937 -4041 0
-938 -4042 0
-939 -4043 0
-940 -4044 0
-937 -2645 0
-938 -2646 0
-939 -2647 0
-940 -2648 0
-937 -4957 0
-938 -4958 0
-939 -4959 0
-940 -4960 0
-937 -2037 0
-938 -2038 0
-939 -2039 0
-940 -2040 0
-941 -2309 0
-942 -2310 0
-943 -2311 0
-944 -2312 0
-941 -4361 0
-942 -4362 0
-943 -4363 0
-944 -4364 0
-941 -4637 0
-942 -4638 0
-943 -4639 0
-944 -4640 0
-941 -1857 0
-942 -1858 0
-943 -1859 0
-944 -1860 0
-941 -3145 0
-942 -3146 0
-943 -3147 0
-944 -3148 0
-941 -1741 0
-942 -1742 0
-943 -1743 0
-944 -1744 0
-941 -4045 0
-942 -4046 0
-943 -4047 0
-944 -4048 0
-941 -2045 0
-942 -2046 0
-943 -2047 0
-944 -2048 0
-945 -2057 0
-946 -2058 0
-947 -2059 0
-948 -2060 0
-945 -3725 0
-946 -3726 0
-947 -3727 0
-948 -3728 0
-945 -1605 0
-946 -1606 0
-947 -1607 0
-948 -1608 0
-945 -5317 0
-946 -5318 0
-947 -5319 0
-948 -5320 0
-945 -1745 0
-946 -1746 0
-947 -1747 0
-948 -1748 0
-945 -4061 0
-946 -4062 0
-947 -4063 0
-948 -4064 0
-945 -3169 0
-946 -3170 0
-947 -3171 0
-948 -3172 0
-945 -2541 0
-946 -2542 0
-947 -2543 0
-948 -2544 0
-945 -3317 0
-946 -3318 0
-947 -3319 0
-948 -3320 0
-949 -1033 0
-950 -1034 0
-951 -1035 0
-952 -1036 0
-949 -1933 0
-950 -1934 0
-951 -1935 0
-952 -1936 0
-949 -1713 0
-950 -1714 0
-951 -1715 0
-952 -1716 0
-949 -4397 0
-950 -4398 0
-951 -4399 0
-952 -4400 0
-949 -4973 0
-950 -4974 0
-951 -4975 0
-952 -4976 0
-949 -3321 0
-950 -3322 0
-951 -3323 0
-952 -3324 0
-949 -965 0
-950 -966 0
-951 -967 0
-952 -968 0
-949 -4417 0
-950 -4418 0
-951 -4419 0
-952 -4420 0
-949 -4065 0
-950 -4066 0
-951 -4067 0
-952 -4068 0
-949 -1897 0
-950 -1898 0
-951 -1899 0
-952 -1900 0
-949 -1645 0
-950 -1646 0
-951 -1647 0
-952 -1648 0
-949 -1909 0
-950 -1910 0
-951 -1911 0
-952 -1912 0
-949 -2041 0
-950 -2042 0
-951 -2043 0
-952 -2044 0
-953 -1921 0
-954 -1922 0
-955 -1923 0
-956 -1924 0
-953 -3213 0
-954 -3214 0
-955 -3215 0
-956 -3216 0
-953 -2069 0
-954 -2070 0
-955 -2071 0
-956 -2072 0
-953 -2341 0
-954 -2342 0
-955 -2343 0
-956 -2344 0
-953 -957 0
-954 -958 0
-955 -959 0
-956 -960 0
-953 -1341 0
-954 -1342 0
-955 -1343 0
-956 -1344 0
-953 -4301 0
-954 -4302 0
-955 -4303 0
-956 -4304 0
-953 -4469 0
-954 -4470 0
-955 -4471 0
-956 -4472 0
-953 -2657 0
-954 -2658 0
-955 -2659 0
-956 -2660 0
-953 -4193 0
-954 -4194 0
-955 -4195 0
-956 -4196 0
-953 -5097 0
-954 -5098 0
-955 -5099 0
-956 -5100 0
-953 -4085 0
-954 -4086 0
-955 -4087 0
-956 -4088 0
-957 -1345 0
-958 -1346 0
-959 -1347 0
-960 -1348 0
-957 -4973 0
-958 -4974 0
-959 -4975 0
-960 -4976 0
-957 -1137 0
-958 -1138 0
-959 -1139 0
-960 -1140 0
-961 -1101 0
-962 -1102 0
-963 -1103 0
-964 -1104 0
-961 -5721 0
-962 -5722 0
-963 -5723 0
-964 -5724 0
-961 -2661 0
-962 -2662 0
-963 -2663 0
-964 -2664 0
-961 -2665 0
-962 -2666 0
-963 -2667 0
-964 -2668 0
-961 -1141 0
-962 -1142 0
-963 -1143 0
-964 -1144 0
-961 -2693 0
-962 -2694 0
-963 -2695 0
-964 -2696 0
-961 -3221 0
-962 -3222 0
-963 -3223 0
-964 -3224 0
-961 -2317 0
-962 -2318 0
-963 -2319 0
-964 -2320 0
-961 -2349 0
-962 -2350 0
-963 -2351 0
-964 -2352 0
-961 -4433 0
-962 -4434 0
-963 -4435 0
-964 -4436 0
-961 -4453 0
-962 -4454 0
-963 -4455 0
-964 -4456 0
-961 -4977 0
-962 -4978 0
-963 -4979 0
-964 -4980 0
-961 -4473 0
-962 -4474 0
-963 -4475 0
-964 -4476 0
-961 -1925 0
-962 -1926 0
-963 -1927 0
-964 -1928 0
-961 -2953 0
-962 -2954 0
-963 -2955 0
-964 -2956 0
-961 -2517 0
-962 -2518 0
-963 -2519 0
-964 -2520 0
-961 -1525 0
-962 -1526 0
-963 -1527 0
-964 -1528 0
-965 -1941 0
-966 -1942 0
-967 -1943 0
-968 -1944 0
-965 -2361 0
-966 -2362 0
-967 -2363 0
-968 -2364 0
-965 -1653 0
-966 -1654 0
-967 -1655 0
-968 -1656 0
-965 -1145 0
-966 -1146 0
-967 -1147 0
-968 -1148 0
-969 -1161 0
-970 -1162 0
-971 -1163 0
-972 -1164 0
-969 -3601 0
-970 -3602 0
-971 -3603 0
-972 -3604 0
-969 -3221 0
-970 -3222 0
-971 -3223 0
-972 -3224 0
-969 -2093 0
-970 -2094 0
-971 -2095 0
-972 -2096 0
-969 -4433 0
-970 -4434 0
-971 -4435 0
-972 -4436 0
-969 -1753 0
-970 -1754 0
-971 -1755 0
-972 -1756 0
-969 -4473 0
-970 -4474 0
-971 -4475 0
-972 -4476 0
-969 -5997 0
-970 -5998 0
-971 -5999 0
-972 -6000 0
-969 -1529 0
-970 -1530 0
-971 -1531 0
-972 -1532 0
-969 -5117 0
-970 -5118 0
-971 -5119 0
-972 -5120 0
-973 -4097 0
-974 -4098 0
-975 -4099 0
-976 -4100 0
-973 -1685 0
-974 -1686 0
-975 -1687 0
-976 -1688 0
-973 -2025 0
-974 -2026 0
-975 -2027 0
-976 -2028 0
-973 -1645 0
-974 -1646 0
-975 -1647 0
-976 -1648 0
-973 -3957 0
-974 -3958 0
-975 -3959 0
-976 -3960 0
-977 -4497 0
-978 -4498 0
-979 -4499 0
-980 -4500 0
-977 -1557 0
-978 -1558 0
-979 -1559 0
-980 -1560 0
-977 -981 0
-978 -982 0
-979 -983 0
-980 -984 0
-977 -2025 0
-978 -2026 0
-979 -2027 0
-980 -2028 0
-977 -2669 0
-978 -2670 0
-979 -2671 0
-980 -2672 0
-977 -1777 0
-978 -1778 0
-979 -1779 0
-980 -1780 0
-981 -4113 0
-982 -4114 0
-983 -4115 0
-984 -4116 0
-981 -1569 0
-982 -1570 0
-983 -1571 0
-984 -1572 0
-981 -5613 0
-982 -5614 0
-983 -5615 0
-984 -5616 0
-981 -2033 0
-982 -2034 0
-983 -2035 0
-984 -2036 0
-985 -1025 0
-986 -1026 0
-987 -1027 0
-988 -1028 0
-985 -1673 0
-986 -1674 0
-987 -1675 0
-988 -1676 0
-985 -1557 0
-986 -1558 0
-987 -1559 0
-988 -1560 0
-985 -1817 0
-986 -1818 0
-987 -1819 0
-988 -1820 0
-985 -3741 0
-986 -3742 0
-987 -3743 0
-988 -3744 0
-985 -2341 0
-986 -2342 0
-987 -2343 0
-988 -2344 0
-985 -2353 0
-986 -2354 0
-987 -2355 0
-988 -2356 0
-985 -2025 0
-986 -2026 0
-987 -2027 0
-988 -2028 0
-985 -1997 0
-986 -1998 0
-987 -1999 0
-988 -2000 0
-985 -989 0
-986 -990 0
-987 -991 0
-988 -992 0
-985 -1381 0
-986 -1382 0
-987 -1383 0
-988 -1384 0
-985 -1641 0
-986 -1642 0
-987 -1643 0
-988 -1644 0
-985 -1777 0
-986 -1778 0
-987 -1779 0
-988 -1780 0
-985 -6009 0
-986 -6010 0
-987 -6011 0
-988 -6012 0
-985 -1533 0
-986 -1534 0
-987 -1535 0
-988 -1536 0
-989 -1537 0
-990 -1538 0
-991 -1539 0
-992 -1540 0
-989 -1033 0
-990 -1034 0
-991 -1035 0
-992 -1036 0
-989 -2717 0
-990 -2718 0
-991 -2719 0
-992 -2720 0
-989 -1569 0
-990 -1570 0
-991 -1571 0
-992 -1572 0
-989 -1829 0
-990 -1830 0
-991 -1831 0
-992 -1832 0
-989 -5629 0
-990 -5630 0
-991 -5631 0
-992 -5632 0
-989 -2353 0
-990 -2354 0
-991 -2355 0
-992 -2356 0
-989 -2361 0
-990 -2362 0
-991 -2363 0
-992 -2364 0
-989 -3261 0
-990 -3262 0
-991 -3263 0
-992 -3264 0
-989 -4145 0
-990 -4146 0
-991 -4147 0
-992 -4148 0
-989 -4149 0
-990 -4150 0
-991 -4151 0
-992 -4152 0
-989 -2033 0
-990 -2034 0
-991 -2035 0
-992 -2036 0
-989 -1145 0
-990 -1146 0
-991 -1147 0
-992 -1148 0
-989 -1149 0
-990 -1150 0
-991 -1151 0
-992 -1152 0
-993 -5641 0
-994 -5642 0
-995 -5643 0
-996 -5644 0
-993 -1041 0
-994 -1042 0
-995 -1043 0
-996 -1044 0
-993 -1693 0
-994 -1694 0
-995 -1695 0
-996 -1696 0
-993 -2725 0
-994 -2726 0
-995 -2727 0
-996 -2728 0
-993 -4005 0
-994 -4006 0
-995 -4007 0
-996 -4008 0
-993 -1841 0
-994 -1842 0
-995 -1843 0
-996 -1844 0
-993 -2373 0
-994 -2374 0
-995 -2375 0
-996 -2376 0
-993 -2889 0
-994 -2890 0
-995 -2891 0
-996 -2892 0
-993 -2769 0
-994 -2770 0
-995 -2771 0
-996 -2772 0
-993 -3269 0
-994 -3270 0
-995 -3271 0
-996 -3272 0
-993 -2153 0
-994 -2154 0
-995 -2155 0
-996 -2156 0
-997 -1177 0
-998 -1178 0
-999 -1179 0
-1000 -1180 0
-997 -1817 0
-998 -1818 0
-999 -1819 0
-1000 -1820 0
-997 -2341 0
-998 -2342 0
-999 -2343 0
-1000 -2344 0
-997 -4157 0
-998 -4158 0
-999 -4159 0
-1000 -4160 0
-997 -3793 0
-998 -3794 0
-999 -3795 0
-1000 -3796 0
-997 -2013 0
-998 -2014 0
-999 -2015 0
-1000 -2016 0
-997 -1777 0
-998 -1778 0
-999 -1779 0
-1000 -1780 0
-1001 -5133 0
-1002 -5134 0
-1003 -5135 0
-1004 -5136 0
-1001 -2069 0
-1002 -2070 0
-1003 -2071 0
-1004 -2072 0
-1001 -2005 0
-1002 -2006 0
-1003 -2007 0
-1004 -2008 0
-1001 -3289 0
-1002 -3290 0
-1003 -3291 0
-1004 -3292 0
-1001 -2153 0
-1002 -2154 0
-1003 -2155 0
-1004 -2156 0
-1001 -1013 0
-1002 -1014 0
-1003 -1015 0
-1004 -1016 0
-1005 -2573 0
-1006 -2574 0
-1007 -2575 0
-1008 -2576 0
-1005 -3613 0
-1006 -3614 0
-1007 -3615 0
-1008 -3616 0
-1005 -5665 0
-1006 -5666 0
-1007 -5667 0
-1008 -5668 0
-1005 -2109 0
-1006 -2110 0
-1007 -2111 0
-1008 -2112 0
-1005 -3157 0
-1006 -3158 0
-1007 -3159 0
-1008 -3160 0
-1005 -4185 0
-1006 -4186 0
-1007 -4187 0
-1008 -4188 0
-1005 -4189 0
-1006 -4190 0
-1007 -4191 0
-1008 -4192 0
-1005 -1673 0
-1006 -1674 0
-1007 -1675 0
-1008 -1676 0
-1005 -2697 0
-1006 -2698 0
-1007 -2699 0
-1008 -2700 0
-1005 -2701 0
-1006 -2702 0
-1007 -2703 0
-1008 -2704 0
-1005 -1181 0
-1006 -1182 0
-1007 -1183 0
-1008 -1184 0
-1005 -1189 0
-1006 -1190 0
-1007 -1191 0
-1008 -1192 0
-1005 -4785 0
-1006 -4786 0
-1007 -4787 0
-1008 -4788 0
-1005 -3273 0
-1006 -3274 0
-1007 -3275 0
-1008 -3276 0
-1005 -3281 0
-1006 -3282 0
-1007 -3283 0
-1008 -3284 0
-1005 -5385 0
-1006 -5386 0
-1007 -5387 0
-1008 -5388 0
-1005 -5897 0
-1006 -5898 0
-1007 -5899 0
-1008 -5900 0
-1005 -5393 0
-1006 -5394 0
-1007 -5395 0
-1008 -5396 0
-1005 -5901 0
-1006 -5902 0
-1007 -5903 0
-1008 -5904 0
-1005 -4505 0
-1006 -4506 0
-1007 -4507 0
-1008 -4508 0
-1005 -4525 0
-1006 -4526 0
-1007 -4527 0
-1008 -4528 0
-1005 -2005 0
-1006 -2006 0
-1007 -2007 0
-1008 -2008 0
-1005 -2033 0
-1006 -2034 0
-1007 -2035 0
-1008 -2036 0
-1009 -1045 0
-1010 -1046 0
-1011 -1047 0
-1012 -1048 0
-1009 -1557 0
-1010 -1558 0
-1011 -1559 0
-1012 -1560 0
-1009 -1685 0
-1010 -1686 0
-1011 -1687 0
-1012 -1688 0
-1009 -2581 0
-1010 -2582 0
-1011 -2583 0
-1012 -2584 0
-1009 -3753 0
-1010 -3754 0
-1011 -3755 0
-1012 -3756 0
-1009 -5397 0
-1010 -5398 0
-1011 -5399 0
-1012 -5400 0
-1009 -4541 0
-1010 -4542 0
-1011 -4543 0
-1012 -4544 0
-1009 -2753 0
-1010 -2754 0
-1011 -2755 0
-1012 -2756 0
-1009 -4289 0
-1010 -4290 0
-1011 -4291 0
-1012 -4292 0
-1009 -2393 0
-1010 -2394 0
-1011 -2395 0
-1012 -2396 0
-1009 -2401 0
-1010 -2402 0
-1011 -2403 0
-1012 -2404 0
-1009 -2549 0
-1010 -2550 0
-1011 -2551 0
-1012 -2552 0
-1009 -1021 0
-1010 -1022 0
-1011 -1023 0
-1012 -1024 0
-1013 -1029 0
-1014 -1030 0
-1015 -1031 0
-1016 -1032 0
-1013 -2701 0
-1014 -2702 0
-1015 -2703 0
-1016 -2704 0
-1013 -5157 0
-1014 -5158 0
-1015 -5159 0
-1016 -5160 0
-1013 -1193 0
-1014 -1194 0
-1015 -1195 0
-1016 -1196 0
-1013 -1897 0
-1014 -1898 0
-1015 -1899 0
-1016 -1900 0
-1013 -2025 0
-1014 -2026 0
-1015 -2027 0
-1016 -2028 0
-1013 -4193 0
-1014 -4194 0
-1015 -4195 0
-1016 -4196 0
-1017 -1041 0
-1018 -1042 0
-1019 -1043 0
-1020 -1044 0
-1017 -1565 0
-1018 -1566 0
-1019 -1567 0
-1020 -1568 0
-1017 -3617 0
-1018 -3618 0
-1019 -3619 0
-1020 -3620 0
-1017 -1065 0
-1018 -1066 0
-1019 -1067 0
-1020 -1068 0
-1017 -3037 0
-1018 -3038 0
-1019 -3039 0
-1020 -3040 0
-1017 -3757 0
-1018 -3758 0
-1019 -3759 0
-1020 -3760 0
-1017 -1593 0
-1018 -1594 0
-1019 -1595 0
-1020 -1596 0
-1017 -1721 0
-1018 -1722 0
-1019 -1723 0
-1020 -1724 0
-1017 -2117 0
-1018 -2118 0
-1019 -2119 0
-1020 -2120 0
-1017 -2397 0
-1018 -2398 0
-1019 -2399 0
-1020 -2400 0
-1017 -3305 0
-1018 -3306 0
-1019 -3307 0
-1020 -3308 0
-1017 -2165 0
-1018 -2166 0
-1019 -2167 0
-1020 -2168 0
-1017 -1021 0
-1018 -1022 0
-1019 -1023 0
-1020 -1024 0
-1021 -1025 0
-1022 -1026 0
-1023 -1027 0
-1024 -1028 0
-1021 -1553 0
-1022 -1554 0
-1023 -1555 0
-1024 -1556 0
-1021 -2073 0
-1022 -2074 0
-1023 -2075 0
-1024 -2076 0
-1021 -1569 0
-1022 -1570 0
-1023 -1571 0
-1024 -1572 0
-1021 -3621 0
-1022 -3622 0
-1023 -3623 0
-1024 -3624 0
-1021 -5161 0
-1022 -5162 0
-1023 -5163 0
-1024 -5164 0
-1021 -1069 0
-1022 -1070 0
-1023 -1071 0
-1024 -1072 0
-1021 -4173 0
-1022 -4174 0
-1023 -4175 0
-1024 -4176 0
-1021 -1665 0
-1022 -1666 0
-1023 -1667 0
-1024 -1668 0
-1021 -1689 0
-1022 -1690 0
-1023 -1691 0
-1024 -1692 0
-1021 -3761 0
-1022 -3762 0
-1023 -3763 0
-1024 -3764 0
-1021 -3777 0
-1022 -3778 0
-1023 -3779 0
-1024 -3780 0
-1021 -2757 0
-1022 -2758 0
-1023 -2759 0
-1024 -2760 0
-1021 -2401 0
-1022 -2402 0
-1023 -2403 0
-1024 -2404 0
-1021 -2409 0
-1022 -2410 0
-1023 -2411 0
-1024 -2412 0
-1021 -1901 0
-1022 -1902 0
-1023 -1903 0
-1024 -1904 0
-1021 -1505 0
-1022 -1506 0
-1023 -1507 0
-1024 -1508 0
-1021 -4509 0
-1022 -4510 0
-1023 -4511 0
-1024 -4512 0
-1021 -5033 0
-1022 -5034 0
-1023 -5035 0
-1024 -5036 0
-1021 -4529 0
-1022 -4530 0
-1023 -4531 0
-1024 -4532 0
-1021 -5049 0
-1022 -5050 0
-1023 -5051 0
-1024 -5052 0
-1021 -4545 0
-1022 -4546 0
-1023 -4547 0
-1024 -4548 0
-1021 -3041 0
-1022 -3042 0
-1023 -3043 0
-1024 -3044 0
-1025 -1029 0
-1026 -1030 0
-1027 -1031 0
-1028 -1032 0
-1025 -1033 0
-1026 -1034 0
-1027 -1035 0
-1028 -1036 0
-1025 -1557 0
-1026 -1558 0
-1027 -1559 0
-1028 -1560 0
-1025 -2581 0
-1026 -2582 0
-1027 -2583 0
-1028 -2584 0
-1025 -2077 0
-1026 -2078 0
-1027 -2079 0
-1028 -2080 0
-1025 -2081 0
-1026 -2082 0
-1027 -2083 0
-1028 -2084 0
-1025 -1573 0
-1026 -1574 0
-1027 -1575 0
-1028 -1576 0
-1025 -5165 0
-1026 -5166 0
-1027 -5167 0
-1028 -5168 0
-1025 -1073 0
-1026 -1074 0
-1027 -1075 0
-1028 -1076 0
-1025 -1597 0
-1026 -1598 0
-1027 -1599 0
-1028 -1600 0
-1025 -2109 0
-1026 -2110 0
-1027 -2111 0
-1028 -2112 0
-1025 -2557 0
-1026 -2558 0
-1027 -2559 0
-1028 -2560 0
-1025 -3653 0
-1026 -3654 0
-1027 -3655 0
-1028 -3656 0
-1025 -1113 0
-1026 -1114 0
-1027 -1115 0
-1028 -1116 0
-1025 -3685 0
-1026 -3686 0
-1027 -3687 0
-1028 -3688 0
-1025 -2169 0
-1026 -2170 0
-1027 -2171 0
-1028 -2172 0
-1025 -1685 0
-1026 -1686 0
-1027 -1687 0
-1028 -1688 0
-1025 -1197 0
-1026 -1198 0
-1027 -1199 0
-1028 -1200 0
-1025 -3781 0
-1026 -3782 0
-1027 -3783 0
-1028 -3784 0
-1025 -2761 0
-1026 -2762 0
-1027 -2763 0
-1028 -2764 0
-1025 -4297 0
-1026 -4298 0
-1027 -4299 0
-1028 -4300 0
-1025 -1757 0
-1026 -1758 0
-1027 -1759 0
-1028 -1760 0
-1025 -3805 0
-1026 -3806 0
-1027 -3807 0
-1028 -3808 0
-1025 -1797 0
-1026 -1798 0
-1027 -1799 0
-1028 -1800 0
-1025 -1809 0
-1026 -1810 0
-1027 -1811 0
-1028 -1812 0
-1025 -1853 0
-1026 -1854 0
-1027 -1855 0
-1028 -1856 0
-1025 -2405 0
-1026 -2406 0
-1027 -2407 0
-1028 -2408 0
-1025 -2413 0
-1026 -2414 0
-1027 -2415 0
-1028 -2416 0
-1025 -1393 0
-1026 -1394 0
-1027 -1395 0
-1028 -1396 0
-1025 -1905 0
-1026 -1906 0
-1027 -1907 0
-1028 -1908 0
-1025 -3457 0
-1026 -3458 0
-1027 -3459 0
-1028 -3460 0
-1025 -5053 0
-1026 -5054 0
-1027 -5055 0
-1028 -5056 0
-1025 -2029 0
-1026 -2030 0
-1027 -2031 0
-1028 -2032 0
-1025 -2549 0
-1026 -2550 0
-1027 -2551 0
-1028 -2552 0
-1029 -1561 0
-1030 -1562 0
-1031 -1563 0
-1032 -1564 0
-1029 -5169 0
-1030 -5170 0
-1031 -5171 0
-1032 -5172 0
-1029 -4177 0
-1030 -4178 0
-1031 -4179 0
-1032 -4180 0
-1029 -3289 0
-1030 -3290 0
-1031 -3291 0
-1032 -3292 0
-1029 -2033 0
-1030 -2034 0
-1031 -2035 0
-1032 -2036 0
-1029 -2553 0
-1030 -2554 0
-1031 -2555 0
-1032 -2556 0
-1029 -2417 0
-1030 -2418 0
-1031 -2419 0
-1032 -2420 0
-1033 -1569 0
-1034 -1570 0
-1035 -1571 0
-1036 -1572 0
-1033 -2093 0
-1034 -2094 0
-1035 -2095 0
-1036 -2096 0
-1033 -1605 0
-1034 -1606 0
-1035 -1607 0
-1036 -1608 0
-1033 -1689 0
-1034 -1690 0
-1035 -1691 0
-1036 -1692 0
-1033 -3293 0
-1034 -3294 0
-1035 -3295 0
-1036 -3296 0
-1033 -1857 0
-1034 -1858 0
-1035 -1859 0
-1036 -1860 0
-1033 -2381 0
-1034 -2382 0
-1035 -2383 0
-1036 -2384 0
-1033 -5989 0
-1034 -5990 0
-1035 -5991 0
-1036 -5992 0
-1033 -2413 0
-1034 -2414 0
-1035 -2415 0
-1036 -2416 0
-1033 -2425 0
-1034 -2426 0
-1035 -2427 0
-1036 -2428 0
-1033 -1913 0
-1034 -1914 0
-1035 -1915 0
-1036 -1916 0
-1033 -4521 0
-1034 -4522 0
-1035 -4523 0
-1036 -4524 0
-1033 -1505 0
-1034 -1506 0
-1035 -1507 0
-1036 -1508 0
-1033 -4069 0
-1034 -4070 0
-1035 -4071 0
-1036 -4072 0
-1037 -5381 0
-1038 -5382 0
-1039 -5383 0
-1040 -5384 0
-1037 -1933 0
-1038 -1934 0
-1039 -1935 0
-1040 -1936 0
-1037 -1693 0
-1038 -1694 0
-1039 -1695 0
-1040 -1696 0
-1037 -1189 0
-1038 -1190 0
-1039 -1191 0
-1040 -1192 0
-1037 -1829 0
-1038 -1830 0
-1039 -1831 0
-1040 -1832 0
-1037 -5673 0
-1038 -5674 0
-1039 -5675 0
-1040 -5676 0
-1037 -5685 0
-1038 -5686 0
-1039 -5687 0
-1040 -5688 0
-1037 -2429 0
-1038 -2430 0
-1039 -2431 0
-1040 -2432 0
-1037 -1085 0
-1038 -1086 0
-1039 -1087 0
-1040 -1088 0
-1037 -1861 0
-1038 -1862 0
-1039 -1863 0
-1040 -1864 0
-1037 -4197 0
-1038 -4198 0
-1039 -4199 0
-1040 -4200 0
-1037 -2029 0
-1038 -2030 0
-1039 -2031 0
-1040 -2032 0
-1037 -2173 0
-1038 -2174 0
-1039 -2175 0
-1040 -2176 0
-1041 -2097 0
-1042 -2098 0
-1043 -2099 0
-1044 -2100 0
-1041 -5689 0
-1042 -5690 0
-1043 -5691 0
-1044 -5692 0
-1041 -1093 0
-1042 -1094 0
-1043 -1095 0
-1044 -1096 0
-1041 -5721 0
-1042 -5722 0
-1043 -5723 0
-1044 -5724 0
-1041 -2705 0
-1042 -2706 0
-1043 -2707 0
-1044 -2708 0
-1041 -2709 0
-1042 -2710 0
-1043 -2711 0
-1044 -2712 0
-1041 -1709 0
-1042 -1710 0
-1043 -1711 0
-1044 -1712 0
-1041 -1733 0
-1042 -1734 0
-1043 -1735 0
-1044 -1736 0
-1041 -3301 0
-1042 -3302 0
-1043 -3303 0
-1044 -3304 0
-1041 -1925 0
-1042 -1926 0
-1043 -1927 0
-1044 -1928 0
-1041 -2437 0
-1042 -2438 0
-1043 -2439 0
-1044 -2440 0
-1041 -2953 0
-1042 -2954 0
-1043 -2955 0
-1044 -2956 0
-1041 -2509 0
-1042 -2510 0
-1043 -2511 0
-1044 -2512 0
-1041 -4565 0
-1042 -4566 0
-1043 -4567 0
-1044 -4568 0
-1041 -3057 0
-1042 -3058 0
-1043 -3059 0
-1044 -3060 0
-1045 -1157 0
-1046 -1158 0
-1047 -1159 0
-1048 -1160 0
-1045 -3209 0
-1046 -3210 0
-1047 -3211 0
-1048 -3212 0
-1045 -2061 0
-1046 -2062 0
-1047 -2063 0
-1048 -2064 0
-1045 -4233 0
-1046 -4234 0
-1047 -4235 0
-1048 -4236 0
-1045 -3313 0
-1046 -3314 0
-1047 -3315 0
-1048 -3316 0
-1045 -2077 0
-1046 -2078 0
-1047 -2079 0
-1048 -2080 0
-1045 -5405 0
-1046 -5406 0
-1047 -5407 0
-1048 -5408 0
-1045 -1957 0
-1046 -1958 0
-1047 -1959 0
-1048 -1960 0
-1045 -2737 0
-1046 -2738 0
-1047 -2739 0
-1048 -2740 0
-1045 -2113 0
-1046 -2114 0
-1047 -2115 0
-1048 -2116 0
-1045 -4545 0
-1046 -4546 0
-1047 -4547 0
-1048 -4548 0
-1045 -1129 0
-1046 -1130 0
-1047 -1131 0
-1048 -1132 0
-1049 -3329 0
-1050 -3330 0
-1051 -3331 0
-1052 -3332 0
-1049 -4229 0
-1050 -4230 0
-1051 -4231 0
-1052 -4232 0
-1049 -3093 0
-1050 -3094 0
-1051 -3095 0
-1052 -3096 0
-1049 -1053 0
-1050 -1054 0
-1051 -1055 0
-1052 -1056 0
-1049 -1065 0
-1050 -1066 0
-1051 -1067 0
-1052 -1068 0
-1049 -4793 0
-1050 -4794 0
-1051 -4795 0
-1052 -4796 0
-1049 -4553 0
-1050 -4554 0
-1051 -4555 0
-1052 -4556 0
-1049 -3809 0
-1050 -3810 0
-1051 -3811 0
-1052 -3812 0
-1049 -1141 0
-1050 -1142 0
-1051 -1143 0
-1052 -1144 0
-1053 -2065 0
-1054 -2066 0
-1055 -2067 0
-1056 -2068 0
-1053 -2585 0
-1054 -2586 0
-1055 -2587 0
-1056 -2588 0
-1053 -2081 0
-1054 -2082 0
-1055 -2083 0
-1056 -2084 0
-1053 -3097 0
-1054 -3098 0
-1055 -3099 0
-1056 -3100 0
-1053 -1069 0
-1054 -1070 0
-1055 -1071 0
-1056 -1072 0
-1053 -2113 0
-1054 -2114 0
-1055 -2115 0
-1056 -2116 0
-1053 -2117 0
-1054 -2118 0
-1055 -2119 0
-1056 -2120 0
-1053 -2137 0
-1054 -2138 0
-1055 -2139 0
-1056 -2140 0
-1053 -4209 0
-1054 -4210 0
-1055 -4211 0
-1056 -4212 0
-1053 -4233 0
-1054 -4234 0
-1055 -4235 0
-1056 -4236 0
-1053 -2201 0
-1054 -2202 0
-1055 -2203 0
-1056 -2204 0
-1053 -3785 0
-1054 -3786 0
-1055 -3787 0
-1056 -3788 0
-1053 -3813 0
-1054 -3814 0
-1055 -3815 0
-1056 -3816 0
-1053 -4333 0
-1054 -4334 0
-1055 -4335 0
-1056 -4336 0
-1053 -3333 0
-1054 -3334 0
-1055 -3335 0
-1056 -3336 0
-1053 -5905 0
-1054 -5906 0
-1055 -5907 0
-1056 -5908 0
-1053 -5409 0
-1054 -5410 0
-1055 -5411 0
-1056 -5412 0
-1053 -3877 0
-1054 -3878 0
-1055 -3879 0
-1056 -3880 0
-1053 -1921 0
-1054 -1922 0
-1055 -1923 0
-1056 -1924 0
-1053 -1953 0
-1054 -1954 0
-1055 -1955 0
-1056 -1956 0
-1053 -4557 0
-1054 -4558 0
-1055 -4559 0
-1056 -4560 0
-1053 -5093 0
-1054 -5094 0
-1055 -5095 0
-1056 -5096 0
-1053 -1525 0
-1054 -1526 0
-1055 -1527 0
-1056 -1528 0
-1057 -2457 0
-1058 -2458 0
-1059 -2459 0
-1060 -2460 0
-1057 -3361 0
-1058 -3362 0
-1059 -3363 0
-1060 -3364 0
-1057 -1065 0
-1058 -1066 0
-1059 -1067 0
-1060 -1068 0
-1057 -3117 0
-1058 -3118 0
-1059 -3119 0
-1060 -3120 0
-1057 -5545 0
-1058 -5546 0
-1059 -5547 0
-1060 -5548 0
-1057 -5433 0
-1058 -5434 0
-1059 -5435 0
-1060 -5436 0
-1057 -2113 0
-1058 -2114 0
-1059 -2115 0
-1060 -2116 0
-1057 -5081 0
-1058 -5082 0
-1059 -5083 0
-1060 -5084 0
-1057 -3817 0
-1058 -3818 0
-1059 -3819 0
-1060 -3820 0
-1057 -4349 0
-1058 -4350 0
-1059 -4351 0
-1060 -4352 0
-1061 -2593 0
-1062 -2594 0
-1063 -2595 0
-1064 -2596 0
-1061 -3365 0
-1062 -3366 0
-1063 -3367 0
-1064 -3368 0
-1061 -1065 0
-1062 -1066 0
-1063 -1067 0
-1064 -1068 0
-1061 -2745 0
-1062 -2746 0
-1063 -2747 0
-1064 -2748 0
-1061 -1725 0
-1062 -1726 0
-1063 -1727 0
-1064 -1728 0
-1061 -3129 0
-1062 -3130 0
-1063 -3131 0
-1064 -3132 0
-1061 -4577 0
-1062 -4578 0
-1063 -4579 0
-1064 -4580 0
-1061 -4713 0
-1062 -4714 0
-1063 -4715 0
-1064 -4716 0
-1061 -5745 0
-1062 -5746 0
-1063 -5747 0
-1064 -5748 0
-1065 -1069 0
-1066 -1070 0
-1067 -1071 0
-1068 -1072 0
-1065 -1077 0
-1066 -1078 0
-1067 -1079 0
-1068 -1080 0
-1065 -1593 0
-1066 -1594 0
-1067 -1595 0
-1068 -1596 0
-1065 -1601 0
-1066 -1602 0
-1067 -1603 0
-1068 -1604 0
-1065 -1093 0
-1066 -1094 0
-1067 -1095 0
-1068 -1096 0
-1065 -2085 0
-1066 -2086 0
-1067 -2087 0
-1068 -2088 0
-1065 -1101 0
-1066 -1102 0
-1067 -1103 0
-1068 -1104 0
-1065 -1617 0
-1066 -1618 0
-1067 -1619 0
-1068 -1620 0
-1065 -2105 0
-1066 -2106 0
-1067 -2107 0
-1068 -2108 0
-1065 -2129 0
-1066 -2130 0
-1067 -2131 0
-1068 -2132 0
-1065 -5209 0
-1066 -5210 0
-1067 -5211 0
-1068 -5212 0
-1065 -5749 0
-1066 -5750 0
-1067 -5751 0
-1068 -5752 0
-1065 -1153 0
-1066 -1154 0
-1067 -1155 0
-1068 -1156 0
-1065 -4229 0
-1066 -4230 0
-1067 -4231 0
-1068 -4232 0
-1065 -4253 0
-1066 -4254 0
-1067 -4255 0
-1068 -4256 0
-1065 -5801 0
-1066 -5802 0
-1067 -5803 0
-1068 -5804 0
-1065 -2221 0
-1066 -2222 0
-1067 -2223 0
-1068 -2224 0
-1065 -2745 0
-1066 -2746 0
-1067 -2747 0
-1068 -2748 0
-1065 -1221 0
-1066 -1222 0
-1067 -1223 0
-1068 -1224 0
-1065 -1229 0
-1066 -1230 0
-1067 -1231 0
-1068 -1232 0
-1065 -2749 0
-1066 -2750 0
-1067 -2751 0
-1068 -2752 0
-1065 -1749 0
-1066 -1750 0
-1067 -1751 0
-1068 -1752 0
-1065 -2801 0
-1066 -2802 0
-1067 -2803 0
-1068 -2804 0
-1065 -3325 0
-1066 -3326 0
-1067 -3327 0
-1068 -3328 0
-1065 -4357 0
-1066 -4358 0
-1067 -4359 0
-1068 -4360 0
-1065 -3369 0
-1066 -3370 0
-1067 -3371 0
-1068 -3372 0
-1065 -1893 0
-1066 -1894 0
-1067 -1895 0
-1068 -1896 0
-1065 -6029 0
-1066 -6030 0
-1067 -6031 0
-1068 -6032 0
-1065 -3133 0
-1066 -3134 0
-1067 -3135 0
-1068 -3136 0
-1065 -2457 0
-1066 -2458 0
-1067 -2459 0
-1068 -2460 0
-1065 -6041 0
-1066 -6042 0
-1067 -6043 0
-1068 -6044 0
-1065 -2465 0
-1066 -2466 0
-1067 -2467 0
-1068 -2468 0
-1065 -1965 0
-1066 -1966 0
-1067 -1967 0
-1068 -1968 0
-1065 -2989 0
-1066 -2990 0
-1067 -2991 0
-1068 -2992 0
-1065 -5089 0
-1066 -5090 0
-1067 -5091 0
-1068 -5092 0
-1069 -2089 0
-1070 -2090 0
-1071 -2091 0
-1072 -2092 0
-1069 -1073 0
-1070 -1074 0
-1071 -1075 0
-1072 -1076 0
-1069 -1081 0
-1070 -1082 0
-1071 -1083 0
-1072 -1084 0
-1069 -3137 0
-1070 -3138 0
-1071 -3139 0
-1072 -3140 0
-1069 -1605 0
-1070 -1606 0
-1071 -1607 0
-1072 -1608 0
-1069 -2141 0
-1070 -2142 0
-1071 -2143 0
-1072 -2144 0
-1069 -5213 0
-1070 -5214 0
-1071 -5215 0
-1072 -5216 0
-1069 -4233 0
-1070 -4234 0
-1071 -4235 0
-1072 -4236 0
-1069 -4257 0
-1070 -4258 0
-1071 -4259 0
-1072 -4260 0
-1069 -2225 0
-1070 -2226 0
-1071 -2227 0
-1072 -2228 0
-1069 -2749 0
-1070 -2750 0
-1071 -2751 0
-1072 -2752 0
-1069 -1781 0
-1070 -1782 0
-1071 -1783 0
-1072 -1784 0
-1069 -3833 0
-1070 -3834 0
-1071 -3835 0
-1072 -3836 0
-1069 -4361 0
-1070 -4362 0
-1071 -4363 0
-1072 -4364 0
-1069 -5413 0
-1070 -5414 0
-1071 -5415 0
-1072 -5416 0
-1069 -3373 0
-1070 -3374 0
-1071 -3375 0
-1072 -3376 0
-1069 -5441 0
-1070 -5442 0
-1071 -5443 0
-1072 -5444 0
-1069 -1897 0
-1070 -1898 0
-1071 -1899 0
-1072 -1900 0
-1069 -2461 0
-1070 -2462 0
-1071 -2463 0
-1072 -2464 0
-1069 -4549 0
-1070 -4550 0
-1071 -4551 0
-1072 -4552 0
-1069 -5105 0
-1070 -5106 0
-1071 -5107 0
-1072 -5108 0
-1073 -2565 0
-1074 -2566 0
-1075 -2567 0
-1076 -2568 0
-1073 -4237 0
-1074 -4238 0
-1075 -4239 0
-1076 -4240 0
-1073 -1437 0
-1074 -1438 0
-1075 -1439 0
-1076 -1440 0
-1073 -2469 0
-1074 -2470 0
-1075 -2471 0
-1076 -2472 0
-1073 -3493 0
-1074 -3494 0
-1075 -3495 0
-1076 -3496 0
-1073 -2229 0
-1074 -2230 0
-1075 -2231 0
-1076 -2232 0
-1073 -3701 0
-1074 -3702 0
-1075 -3703 0
-1076 -3704 0
-1073 -1597 0
-1074 -1598 0
-1075 -1599 0
-1076 -1600 0
-1073 -1225 0
-1074 -1226 0
-1075 -1227 0
-1076 -1228 0
-1073 -1869 0
-1074 -1870 0
-1075 -1871 0
-1076 -1872 0
-1073 -3661 0
-1074 -3662 0
-1075 -3663 0
-1076 -3664 0
-1073 -5217 0
-1074 -5218 0
-1075 -5219 0
-1076 -5220 0
-1077 -2593 0
-1078 -2594 0
-1079 -2595 0
-1080 -2596 0
-1077 -2597 0
-1078 -2598 0
-1079 -2599 0
-1080 -2600 0
-1077 -2097 0
-1078 -2098 0
-1079 -2099 0
-1080 -2100 0
-1077 -1081 0
-1078 -1082 0
-1079 -1083 0
-1080 -1084 0
-1077 -1085 0
-1078 -1086 0
-1079 -1087 0
-1080 -1088 0
-1077 -5697 0
-1078 -5698 0
-1079 -5699 0
-1080 -5700 0
-1077 -1097 0
-1078 -1098 0
-1079 -1099 0
-1080 -1100 0
-1077 -3145 0
-1078 -3146 0
-1079 -3147 0
-1080 -3148 0
-1077 -2145 0
-1078 -2146 0
-1079 -2147 0
-1080 -2148 0
-1077 -5225 0
-1078 -5226 0
-1079 -5227 0
-1080 -5228 0
-1077 -4717 0
-1078 -4718 0
-1079 -4719 0
-1080 -4720 0
-1077 -1161 0
-1078 -1162 0
-1079 -1163 0
-1080 -1164 0
-1077 -3749 0
-1078 -3750 0
-1079 -3751 0
-1080 -3752 0
-1077 -2233 0
-1078 -2234 0
-1079 -2235 0
-1080 -2236 0
-1077 -1725 0
-1078 -1726 0
-1079 -1727 0
-1080 -1728 0
-1077 -1737 0
-1078 -1738 0
-1079 -1739 0
-1080 -1740 0
-1077 -4821 0
-1078 -4822 0
-1079 -4823 0
-1080 -4824 0
-1077 -3329 0
-1078 -3330 0
-1079 -3331 0
-1080 -3332 0
-1077 -4369 0
-1078 -4370 0
-1079 -4371 0
-1080 -4372 0
-1077 -3377 0
-1078 -3378 0
-1079 -3379 0
-1080 -3380 0
-1077 -1905 0
-1078 -1906 0
-1079 -1907 0
-1080 -1908 0
-1077 -2465 0
-1078 -2466 0
-1079 -2467 0
-1080 -2468 0
-1077 -3501 0
-1078 -3502 0
-1079 -3503 0
-1080 -3504 0
-1077 -4553 0
-1078 -4554 0
-1079 -4555 0
-1080 -4556 0
-1077 -4589 0
-1078 -4590 0
-1079 -4591 0
-1080 -4592 0
-1081 -2081 0
-1082 -2082 0
-1083 -2083 0
-1084 -2084 0
-1081 -1601 0
-1082 -1602 0
-1083 -1603 0
-1084 -1604 0
-1081 -3149 0
-1082 -3150 0
-1083 -3151 0
-1084 -3152 0
-1081 -2149 0
-1082 -2150 0
-1083 -2151 0
-1084 -2152 0
-1081 -4241 0
-1082 -4242 0
-1083 -4243 0
-1084 -4244 0
-1081 -4261 0
-1082 -4262 0
-1083 -4263 0
-1084 -4264 0
-1081 -2237 0
-1082 -2238 0
-1083 -2239 0
-1084 -2240 0
-1081 -3333 0
-1082 -3334 0
-1083 -3335 0
-1084 -3336 0
-1081 -5905 0
-1082 -5906 0
-1083 -5907 0
-1084 -5908 0
-1081 -5409 0
-1082 -5410 0
-1083 -5411 0
-1084 -5412 0
-1081 -2449 0
-1082 -2450 0
-1083 -2451 0
-1084 -2452 0
-1081 -1949 0
-1082 -1950 0
-1083 -1951 0
-1084 -1952 0
-1081 -1973 0
-1082 -1974 0
-1083 -1975 0
-1084 -1976 0
-1081 -4557 0
-1082 -4558 0
-1083 -4559 0
-1084 -4560 0
-1081 -1529 0
-1082 -1530 0
-1083 -1531 0
-1084 -1532 0
-1085 -3341 0
-1086 -3342 0
-1087 -3343 0
-1088 -3344 0
-1085 -1913 0
-1086 -1914 0
-1087 -1915 0
-1088 -1916 0
-1085 -3505 0
-1086 -3506 0
-1087 -3507 0
-1088 -3508 0
-1085 -1733 0
-1086 -1734 0
-1087 -1735 0
-1088 -1736 0
-1085 -2761 0
-1086 -2762 0
-1087 -2763 0
-1088 -2764 0
-1085 -2133 0
-1086 -2134 0
-1087 -2135 0
-1088 -2136 0
-1085 -3153 0
-1086 -3154 0
-1087 -3155 0
-1088 -3156 0
-1089 -3845 0
-1090 -3846 0
-1091 -3847 0
-1092 -3848 0
-1089 -3345 0
-1090 -3346 0
-1091 -3347 0
-1092 -3348 0
-1089 -4373 0
-1090 -4374 0
-1091 -4375 0
-1092 -4376 0
-1089 -1609 0
-1090 -1610 0
-1091 -1611 0
-1092 -1612 0
-1089 -1229 0
-1090 -1230 0
-1091 -1231 0
-1092 -1232 0
-1089 -2129 0
-1090 -2130 0
-1091 -2131 0
-1092 -2132 0
-1089 -3157 0
-1090 -3158 0
-1091 -3159 0
-1092 -3160 0
-1089 -4601 0
-1090 -4602 0
-1091 -4603 0
-1092 -4604 0
-1089 -1517 0
-1090 -1518 0
-1091 -1519 0
-1092 -1520 0
-1093 -2113 0
-1094 -2114 0
-1095 -2115 0
-1096 -2116 0
-1093 -1097 0
-1094 -1098 0
-1095 -1099 0
-1096 -1100 0
-1093 -3665 0
-1094 -3666 0
-1095 -3667 0
-1096 -3668 0
-1093 -3169 0
-1094 -3170 0
-1095 -3171 0
-1096 -3172 0
-1093 -4605 0
-1094 -4606 0
-1095 -4607 0
-1096 -4608 0
-1093 -5777 0
-1094 -5778 0
-1095 -5779 0
-1096 -5780 0
-1093 -4253 0
-1094 -4254 0
-1095 -4255 0
-1096 -4256 0
-1093 -3757 0
-1094 -3758 0
-1095 -3759 0
-1096 -3760 0
-1093 -1721 0
-1094 -1722 0
-1095 -1723 0
-1096 -1724 0
-1093 -3773 0
-1094 -3774 0
-1095 -3775 0
-1096 -3776 0
-1093 -2757 0
-1094 -2758 0
-1095 -2759 0
-1096 -2760 0
-1093 -2253 0
-1094 -2254 0
-1095 -2255 0
-1096 -2256 0
-1093 -1753 0
-1094 -1754 0
-1095 -1755 0
-1096 -1756 0
-1093 -4833 0
-1094 -4834 0
-1095 -4835 0
-1096 -4836 0
-1093 -3861 0
-1094 -3862 0
-1095 -3863 0
-1096 -3864 0
-1093 -3361 0
-1094 -3362 0
-1095 -3363 0
-1096 -3364 0
-1093 -5433 0
-1094 -5434 0
-1095 -5435 0
-1096 -5436 0
-1093 -3405 0
-1094 -3406 0
-1095 -3407 0
-1096 -3408 0
-1093 -5461 0
-1094 -5462 0
-1095 -5463 0
-1096 -5464 0
-1093 -6033 0
-1094 -6034 0
-1095 -6035 0
-1096 -6036 0
-1093 -2473 0
-1094 -2474 0
-1095 -2475 0
-1096 -2476 0
-1093 -1977 0
-1094 -1978 0
-1095 -1979 0
-1096 -1980 0
-1093 -4585 0
-1094 -4586 0
-1095 -4587 0
-1096 -4588 0
-1093 -5101 0
-1094 -5102 0
-1095 -5103 0
-1096 -5104 0
-1093 -4093 0
-1094 -4094 0
-1095 -4095 0
-1096 -4096 0
-1097 -3369 0
-1098 -3370 0
-1099 -3371 0
-1100 -3372 0
-1097 -2105 0
-1098 -2106 0
-1099 -2107 0
-1100 -2108 0
-1097 -2485 0
-1098 -2486 0
-1099 -2487 0
-1100 -2488 0
-1097 -1985 0
-1098 -1986 0
-1099 -1987 0
-1100 -1988 0
-1097 -3509 0
-1098 -3510 0
-1099 -3511 0
-1100 -3512 0
-1097 -2257 0
-1098 -2258 0
-1099 -2259 0
-1100 -2260 0
-1097 -3181 0
-1098 -3182 0
-1099 -3183 0
-1100 -3184 0
-1101 -4613 0
-1102 -4614 0
-1103 -4615 0
-1104 -4616 0
-1101 -3221 0
-1102 -3222 0
-1103 -3223 0
-1104 -3224 0
-1101 -1309 0
-1102 -1310 0
-1103 -1311 0
-1104 -1312 0
-1101 -3901 0
-1102 -3902 0
-1103 -3903 0
-1104 -3904 0
-1101 -1617 0
-1102 -1618 0
-1103 -1619 0
-1104 -1620 0
-1101 -4441 0
-1102 -4442 0
-1103 -4443 0
-1104 -4444 0
-1101 -3437 0
-1102 -3438 0
-1103 -3439 0
-1104 -3440 0
-1101 -2289 0
-1102 -2290 0
-1103 -2291 0
-1104 -2292 0
-1105 -5517 0
-1106 -5518 0
-1107 -5519 0
-1108 -5520 0
-1105 -2205 0
-1106 -2206 0
-1107 -2207 0
-1108 -2208 0
-1105 -2845 0
-1106 -2846 0
-1107 -2847 0
-1108 -2848 0
-1105 -1829 0
-1106 -1830 0
-1107 -1831 0
-1108 -1832 0
-1105 -2225 0
-1106 -2226 0
-1107 -2227 0
-1108 -2228 0
-1105 -3793 0
-1106 -3794 0
-1107 -3795 0
-1108 -3796 0
-1105 -1773 0
-1106 -1774 0
-1107 -1775 0
-1108 -1776 0
-1105 -1897 0
-1106 -1898 0
-1107 -1899 0
-1108 -1900 0
-1105 -1261 0
-1106 -1262 0
-1107 -1263 0
-1108 -1264 0
-1109 -1921 0
-1110 -1922 0
-1111 -1923 0
-1112 -1924 0
-1109 -1817 0
-1110 -1818 0
-1111 -1819 0
-1112 -1820 0
-1109 -3353 0
-1110 -3354 0
-1111 -3355 0
-1112 -3356 0
-1109 -5573 0
-1110 -5574 0
-1111 -5575 0
-1112 -5576 0
-1109 -3037 0
-1110 -3038 0
-1111 -3039 0
-1112 -3040 0
-1109 -1261 0
-1110 -1262 0
-1111 -1263 0
-1112 -1264 0
-1109 -1781 0
-1110 -1782 0
-1111 -1783 0
-1112 -1784 0
-1113 -3441 0
-1114 -3442 0
-1115 -3443 0
-1116 -3444 0
-1113 -2033 0
-1114 -2034 0
-1115 -2035 0
-1116 -2036 0
-1113 -2237 0
-1114 -2238 0
-1115 -2239 0
-1116 -2240 0
-1113 -4177 0
-1114 -4178 0
-1115 -4179 0
-1116 -4180 0
-1113 -4309 0
-1114 -4310 0
-1115 -4311 0
-1116 -4312 0
-1113 -2161 0
-1114 -2162 0
-1115 -2163 0
-1116 -2164 0
-1113 -1653 0
-1114 -1654 0
-1115 -1655 0
-1116 -1656 0
-1117 -1285 0
-1118 -1286 0
-1119 -1287 0
-1120 -1288 0
-1117 -3461 0
-1118 -3462 0
-1119 -3463 0
-1120 -3464 0
-1117 -1549 0
-1118 -1550 0
-1119 -1551 0
-1120 -1552 0
-1117 -1809 0
-1118 -1810 0
-1119 -1811 0
-1120 -1812 0
-1117 -5257 0
-1118 -5258 0
-1119 -5259 0
-1120 -5260 0
-1117 -2205 0
-1118 -2206 0
-1119 -2207 0
-1120 -2208 0
-1117 -2217 0
-1118 -2218 0
-1119 -2219 0
-1120 -2220 0
-1117 -3825 0
-1118 -3826 0
-1119 -3827 0
-1120 -3828 0
-1117 -2629 0
-1118 -2630 0
-1119 -2631 0
-1120 -2632 0
-1117 -2889 0
-1118 -2890 0
-1119 -2891 0
-1120 -2892 0
-1117 -1881 0
-1118 -1882 0
-1119 -1883 0
-1120 -1884 0
-1117 -4321 0
-1118 -4322 0
-1119 -4323 0
-1120 -4324 0
-1117 -1637 0
-1118 -1638 0
-1119 -1639 0
-1120 -1640 0
-1117 -1137 0
-1118 -1138 0
-1119 -1139 0
-1120 -1140 0
-1117 -2165 0
-1118 -2166 0
-1119 -2167 0
-1120 -2168 0
-1121 -2069 0
-1122 -2070 0
-1123 -2071 0
-1124 -2072 0
-1121 -1817 0
-1122 -1818 0
-1123 -1819 0
-1124 -1820 0
-1121 -2633 0
-1122 -2634 0
-1123 -2635 0
-1124 -2636 0
-1121 -2273 0
-1122 -2274 0
-1123 -2275 0
-1124 -2276 0
-1121 -4329 0
-1122 -4330 0
-1123 -4331 0
-1124 -4332 0
-1121 -1141 0
-1122 -1142 0
-1123 -1143 0
-1124 -1144 0
-1125 -1281 0
-1126 -1282 0
-1127 -1283 0
-1128 -1284 0
-1125 -1665 0
-1126 -1666 0
-1127 -1667 0
-1128 -1668 0
-1125 -3465 0
-1126 -3466 0
-1127 -3467 0
-1128 -3468 0
-1125 -1293 0
-1126 -1294 0
-1127 -1295 0
-1128 -1296 0
-1125 -1309 0
-1126 -1310 0
-1127 -1311 0
-1128 -1312 0
-1125 -1961 0
-1126 -1962 0
-1127 -1963 0
-1128 -1964 0
-1125 -3445 0
-1126 -3446 0
-1127 -3447 0
-1128 -3448 0
-1125 -1769 0
-1126 -1770 0
-1127 -1771 0
-1128 -1772 0
-1125 -2909 0
-1126 -2910 0
-1127 -2911 0
-1128 -2912 0
-1125 -1129 0
-1126 -1130 0
-1127 -1131 0
-1128 -1132 0
-1129 -1285 0
-1130 -1286 0
-1131 -1287 0
-1132 -1288 0
-1129 -2825 0
-1130 -2826 0
-1131 -2827 0
-1132 -2828 0
-1129 -4357 0
-1130 -4358 0
-1131 -4359 0
-1132 -4360 0
-1129 -1297 0
-1130 -1298 0
-1131 -1299 0
-1132 -1300 0
-1129 -1825 0
-1130 -1826 0
-1131 -1827 0
-1132 -1828 0
-1129 -4205 0
-1130 -4206 0
-1131 -4207 0
-1132 -4208 0
-1129 -1837 0
-1130 -1838 0
-1131 -1839 0
-1132 -1840 0
-1129 -2741 0
-1130 -2742 0
-1131 -2743 0
-1132 -2744 0
-1129 -2241 0
-1130 -2242 0
-1131 -2243 0
-1132 -2244 0
-1129 -1773 0
-1130 -1774 0
-1131 -1775 0
-1132 -1776 0
-1129 -1133 0
-1130 -1134 0
-1131 -1135 0
-1132 -1136 0
-1129 -3313 0
-1130 -3314 0
-1131 -3315 0
-1132 -3316 0
-1129 -2041 0
-1130 -2042 0
-1131 -2043 0
-1132 -2044 0
-1133 -1289 0
-1134 -1290 0
-1135 -1291 0
-1136 -1292 0
-1133 -1677 0
-1134 -1678 0
-1135 -1679 0
-1136 -1680 0
-1133 -4361 0
-1134 -4362 0
-1135 -4363 0
-1136 -4364 0
-1133 -1829 0
-1134 -1830 0
-1135 -1831 0
-1136 -1832 0
-1133 -3317 0
-1134 -3318 0
-1135 -3319 0
-1136 -3320 0
-1133 -2913 0
-1134 -2914 0
-1135 -2915 0
-1136 -2916 0
-1137 -5141 0
-1138 -5142 0
-1139 -5143 0
-1140 -5144 0
-1137 -5165 0
-1138 -5166 0
-1139 -5167 0
-1140 -5168 0
-1137 -1649 0
-1138 -1650 0
-1139 -1651 0
-1140 -1652 0
-1137 -1149 0
-1138 -1150 0
-1139 -1151 0
-1140 -1152 0
-1137 -2213 0
-1138 -2214 0
-1139 -2215 0
-1140 -2216 0
-1137 -1193 0
-1138 -1194 0
-1139 -1195 0
-1140 -1196 0
-1137 -2233 0
-1138 -2234 0
-1139 -2235 0
-1140 -2236 0
-1137 -1237 0
-1138 -1238 0
-1139 -1239 0
-1140 -1240 0
-1137 -4321 0
-1138 -4322 0
-1139 -4323 0
-1140 -4324 0
-1137 -2285 0
-1138 -2286 0
-1139 -2287 0
-1140 -2288 0
-1137 -2817 0
-1138 -2818 0
-1139 -2819 0
-1140 -2820 0
-1137 -4353 0
-1138 -4354 0
-1139 -4355 0
-1140 -4356 0
-1137 -1305 0
-1138 -1306 0
-1139 -1307 0
-1140 -1308 0
-1137 -2929 0
-1138 -2930 0
-1139 -2931 0
-1140 -2932 0
-1137 -6013 0
-1138 -6014 0
-1139 -6015 0
-1140 -6016 0
-1137 -2493 0
-1138 -2494 0
-1139 -2495 0
-1140 -2496 0
-1141 -5137 0
-1142 -5138 0
-1143 -5139 0
-1144 -5140 0
-1141 -3097 0
-1142 -3098 0
-1143 -3099 0
-1144 -3100 0
-1141 -2641 0
-1142 -2642 0
-1143 -2643 0
-1144 -2644 0
-1141 -5729 0
-1142 -5730 0
-1143 -5731 0
-1144 -5732 0
-1141 -4209 0
-1142 -4210 0
-1143 -4211 0
-1144 -4212 0
-1141 -1153 0
-1142 -1154 0
-1143 -1155 0
-1144 -1156 0
-1141 -2197 0
-1142 -2198 0
-1143 -2199 0
-1144 -2200 0
-1141 -4329 0
-1142 -4330 0
-1143 -4331 0
-1144 -4332 0
-1141 -2289 0
-1142 -2290 0
-1143 -2291 0
-1144 -2292 0
-1141 -2821 0
-1142 -2822 0
-1143 -2823 0
-1144 -2824 0
-1141 -1801 0
-1142 -1802 0
-1143 -1803 0
-1144 -1804 0
-1141 -3861 0
-1142 -3862 0
-1143 -3863 0
-1144 -3864 0
-1141 -1309 0
-1142 -1310 0
-1143 -1311 0
-1144 -1312 0
-1141 -1881 0
-1142 -1882 0
-1143 -1883 0
-1144 -1884 0
-1141 -1909 0
-1142 -1910 0
-1143 -1911 0
-1144 -1912 0
-1141 -3473 0
-1142 -3474 0
-1143 -3475 0
-1144 -3476 0
-1141 -2005 0
-1142 -2006 0
-1143 -2007 0
-1144 -2008 0
-1145 -1669 0
-1146 -1670 0
-1147 -1671 0
-1148 -1672 0
-1145 -2053 0
-1146 -2054 0
-1147 -2055 0
-1148 -2056 0
-1145 -2013 0
-1146 -2014 0
-1147 -2015 0
-1148 -2016 0
-1145 -2185 0
-1146 -2186 0
-1147 -2187 0
-1148 -2188 0
-1145 -4369 0
-1146 -4370 0
-1147 -4371 0
-1148 -4372 0
-1145 -5269 0
-1146 -5270 0
-1147 -5271 0
-1148 -5272 0
-1145 -2077 0
-1146 -2078 0
-1147 -2079 0
-1148 -2080 0
-1145 -1701 0
-1146 -1702 0
-1147 -1703 0
-1148 -1704 0
-1145 -3873 0
-1146 -3874 0
-1147 -3875 0
-1148 -3876 0
-1145 -1969 0
-1146 -1970 0
-1147 -1971 0
-1148 -1972 0
-1145 -2497 0
-1146 -2498 0
-1147 -2499 0
-1148 -2500 0
-1145 -2257 0
-1146 -2258 0
-1147 -2259 0
-1148 -2260 0
-1145 -2641 0
-1146 -2642 0
-1147 -2643 0
-1148 -2644 0
-1149 -2061 0
-1150 -2062 0
-1151 -2063 0
-1152 -2064 0
-1149 -2081 0
-1150 -2082 0
-1151 -2083 0
-1152 -2084 0
-1149 -5185 0
-1150 -5186 0
-1151 -5187 0
-1152 -5188 0
-1149 -4225 0
-1150 -4226 0
-1151 -4227 0
-1152 -4228 0
-1149 -2197 0
-1150 -2198 0
-1151 -2199 0
-1152 -2200 0
-1149 -1177 0
-1150 -1178 0
-1151 -1179 0
-1152 -1180 0
-1149 -1709 0
-1150 -1710 0
-1151 -1711 0
-1152 -1712 0
-1149 -2245 0
-1150 -2246 0
-1151 -2247 0
-1152 -2248 0
-1149 -3789 0
-1150 -3790 0
-1151 -3791 0
-1152 -3792 0
-1149 -2257 0
-1150 -2258 0
-1151 -2259 0
-1152 -2260 0
-1149 -2269 0
-1150 -2270 0
-1151 -2271 0
-1152 -2272 0
-1149 -4353 0
-1150 -4354 0
-1151 -4355 0
-1152 -4356 0
-1149 -2837 0
-1150 -2838 0
-1151 -2839 0
-1152 -2840 0
-1149 -1821 0
-1150 -1822 0
-1151 -1823 0
-1152 -1824 0
-1149 -3953 0
-1150 -3954 0
-1151 -3955 0
-1152 -3956 0
-1149 -1933 0
-1150 -1934 0
-1151 -1935 0
-1152 -1936 0
-1149 -2501 0
-1150 -2502 0
-1151 -2503 0
-1152 -2504 0
-1153 -2089 0
-1154 -2090 0
-1155 -2091 0
-1156 -2092 0
-1153 -5169 0
-1154 -5170 0
-1155 -5171 0
-1156 -5172 0
-1153 -3137 0
-1154 -3138 0
-1155 -3139 0
-1156 -3140 0
-1153 -5745 0
-1154 -5746 0
-1155 -5747 0
-1156 -5748 0
-1153 -1161 0
-1154 -1162 0
-1155 -1163 0
-1156 -1164 0
-1153 -4233 0
-1154 -4234 0
-1155 -4235 0
-1156 -4236 0
-1153 -1685 0
-1154 -1686 0
-1155 -1687 0
-1156 -1688 0
-1153 -2305 0
-1154 -2306 0
-1155 -2307 0
-1156 -2308 0
-1153 -2841 0
-1154 -2842 0
-1155 -2843 0
-1156 -2844 0
-1153 -2845 0
-1154 -2846 0
-1155 -2847 0
-1156 -2848 0
-1153 -1825 0
-1154 -1826 0
-1155 -1827 0
-1156 -1828 0
-1153 -4381 0
-1154 -4382 0
-1155 -4383 0
-1156 -4384 0
-1153 -1857 0
-1154 -1858 0
-1155 -1859 0
-1156 -1860 0
-1153 -5477 0
-1154 -5478 0
-1155 -5479 0
-1156 -5480 0
-1153 -1941 0
-1154 -1942 0
-1155 -1943 0
-1156 -1944 0
-1153 -2025 0
-1154 -2026 0
-1155 -2027 0
-1156 -2028 0
-1157 -1793 0
-1158 -1794 0
-1159 -1795 0
-1160 -1796 0
-1157 -1161 0
-1158 -1162 0
-1159 -1163 0
-1160 -1164 0
-1157 -2193 0
-1158 -2194 0
-1159 -2195 0
-1160 -2196 0
-1157 -4629 0
-1158 -4630 0
-1159 -4631 0
-1160 -4632 0
-1157 -2097 0
-1158 -2098 0
-1159 -2099 0
-1160 -2100 0
-1157 -3121 0
-1158 -3122 0
-1159 -3123 0
-1160 -3124 0
-1157 -1981 0
-1158 -1982 0
-1159 -1983 0
-1160 -1984 0
-1157 -3145 0
-1158 -3146 0
-1159 -3147 0
-1160 -3148 0
-1157 -2789 0
-1158 -2790 0
-1159 -2791 0
-1160 -2792 0
-1157 -2029 0
-1158 -2030 0
-1159 -2031 0
-1160 -2032 0
-1157 -3569 0
-1158 -3570 0
-1159 -3571 0
-1160 -3572 0
-1157 -1913 0
-1158 -1914 0
-1159 -1915 0
-1160 -1916 0
-1161 -5177 0
-1162 -5178 0
-1163 -5179 0
-1164 -5180 0
-1161 -3149 0
-1162 -3150 0
-1163 -3151 0
-1164 -3152 0
-1161 -1657 0
-1162 -1658 0
-1163 -1659 0
-1164 -1660 0
-1161 -5753 0
-1162 -5754 0
-1163 -5755 0
-1164 -5756 0
-1161 -4241 0
-1162 -4242 0
-1163 -4243 0
-1164 -4244 0
-1161 -2197 0
-1162 -2198 0
-1163 -2199 0
-1164 -2200 0
-1161 -1689 0
-1162 -1690 0
-1163 -1691 0
-1164 -1692 0
-1161 -2309 0
-1162 -2310 0
-1163 -2311 0
-1164 -2312 0
-1161 -4365 0
-1162 -4366 0
-1163 -4367 0
-1164 -4368 0
-1161 -3433 0
-1162 -3434 0
-1163 -3435 0
-1164 -3436 0
-1161 -1917 0
-1162 -1918 0
-1163 -1919 0
-1164 -1920 0
-1161 -3473 0
-1162 -3474 0
-1163 -3475 0
-1164 -3476 0
-1161 -2033 0
-1162 -2034 0
-1163 -2035 0
-1164 -2036 0
-1165 -4633 0
-1166 -4634 0
-1167 -4635 0
-1168 -4636 0
-1165 -2105 0
-1166 -2106 0
-1167 -2107 0
-1168 -2108 0
-1165 -5765 0
-1166 -5766 0
-1167 -5767 0
-1168 -5768 0
-1165 -1173 0
-1166 -1174 0
-1167 -1175 0
-1168 -1176 0
-1165 -1181 0
-1166 -1182 0
-1167 -1183 0
-1168 -1184 0
-1165 -5277 0
-1166 -5278 0
-1167 -5279 0
-1168 -5280 0
-1165 -2233 0
-1166 -2234 0
-1167 -2235 0
-1168 -2236 0
-1165 -1733 0
-1166 -1734 0
-1167 -1735 0
-1168 -1736 0
-1165 -3277 0
-1166 -3278 0
-1167 -3279 0
-1168 -3280 0
-1165 -2265 0
-1166 -2266 0
-1167 -2267 0
-1168 -2268 0
-1165 -2305 0
-1166 -2306 0
-1167 -2307 0
-1168 -2308 0
-1165 -4377 0
-1166 -4378 0
-1167 -4379 0
-1168 -4380 0
-1165 -3481 0
-1166 -3482 0
-1167 -3483 0
-1168 -3484 0
-1165 -6045 0
-1166 -6046 0
-1167 -6047 0
-1168 -6048 0
-1165 -1973 0
-1166 -1974 0
-1167 -1975 0
-1168 -1976 0
-1165 -1529 0
-1166 -1530 0
-1167 -1531 0
-1168 -1532 0
-1169 -5769 0
-1170 -5770 0
-1171 -5771 0
-1172 -5772 0
-1169 -6153 0
-1170 -6154 0
-1171 -6155 0
-1172 -6156 0
-1169 -4253 0
-1170 -4254 0
-1171 -4255 0
-1172 -4256 0
-1169 -4641 0
-1170 -4642 0
-1171 -4643 0
-1172 -4644 0
-1169 -1705 0
-1170 -1706 0
-1171 -1707 0
-1172 -1708 0
-1169 -5185 0
-1170 -5186 0
-1171 -5187 0
-1172 -5188 0
-1169 -5577 0
-1170 -5578 0
-1171 -5579 0
-1172 -5580 0
-1169 -3157 0
-1170 -3158 0
-1171 -3159 0
-1172 -3160 0
-1169 -3169 0
-1170 -3170 0
-1171 -3171 0
-1172 -3172 0
-1169 -5101 0
-1170 -5102 0
-1171 -5103 0
-1172 -5104 0
-1169 -6129 0
-1170 -6130 0
-1171 -6131 0
-1172 -6132 0
-1173 -2309 0
-1174 -2310 0
-1175 -2311 0
-1176 -2312 0
-1173 -5777 0
-1174 -5778 0
-1175 -5779 0
-1176 -5780 0
-1173 -3485 0
-1174 -3486 0
-1175 -3487 0
-1176 -3488 0
-1173 -1849 0
-1174 -1850 0
-1175 -1851 0
-1176 -1852 0
-1173 -1741 0
-1174 -1742 0
-1175 -1743 0
-1176 -1744 0
-1173 -2785 0
-1174 -2786 0
-1175 -2787 0
-1176 -2788 0
-1177 -5749 0
-1178 -5750 0
-1179 -5751 0
-1180 -5752 0
-1177 -2201 0
-1178 -2202 0
-1179 -2203 0
-1180 -2204 0
-1177 -1185 0
-1178 -1186 0
-1179 -1187 0
-1180 -1188 0
-1177 -2237 0
-1178 -2238 0
-1179 -2239 0
-1180 -2240 0
-1177 -4813 0
-1178 -4814 0
-1179 -4815 0
-1180 -4816 0
-1177 -1809 0
-1178 -1810 0
-1179 -1811 0
-1180 -1812 0
-1177 -3357 0
-1178 -3358 0
-1179 -3359 0
-1180 -3360 0
-1177 -2849 0
-1178 -2850 0
-1179 -2851 0
-1180 -2852 0
-1177 -2857 0
-1178 -2858 0
-1179 -2859 0
-1180 -2860 0
-1177 -1325 0
-1178 -1326 0
-1179 -1327 0
-1180 -1328 0
-1177 -3889 0
-1178 -3890 0
-1179 -3891 0
-1180 -3892 0
-1177 -4405 0
-1178 -4406 0
-1179 -4407 0
-1180 -4408 0
-1177 -4413 0
-1178 -4414 0
-1179 -4415 0
-1180 -4416 0
-1177 -2949 0
-1178 -2950 0
-1179 -2951 0
-1180 -2952 0
-1177 -3985 0
-1178 -3986 0
-1179 -3987 0
-1180 -3988 0
-1177 -2489 0
-1178 -2490 0
-1179 -2491 0
-1180 -2492 0
-1181 -2089 0
-1182 -2090 0
-1183 -2091 0
-1184 -2092 0
-1181 -2113 0
-1182 -2114 0
-1183 -2115 0
-1184 -2116 0
-1181 -1677 0
-1182 -1678 0
-1183 -1679 0
-1184 -1680 0
-1181 -5773 0
-1182 -5774 0
-1183 -5775 0
-1184 -5776 0
-1181 -1185 0
-1182 -1186 0
-1183 -1187 0
-1184 -1188 0
-1181 -2221 0
-1182 -2222 0
-1183 -2223 0
-1184 -2224 0
-1181 -2257 0
-1182 -2258 0
-1183 -2259 0
-1184 -2260 0
-1181 -4885 0
-1182 -4886 0
-1183 -4887 0
-1184 -4888 0
-1181 -2865 0
-1182 -2866 0
-1183 -2867 0
-1184 -2868 0
-1181 -1341 0
-1182 -1342 0
-1183 -1343 0
-1184 -1344 0
-1181 -2889 0
-1182 -2890 0
-1183 -2891 0
-1184 -2892 0
-1181 -4429 0
-1182 -4430 0
-1183 -4431 0
-1184 -4432 0
-1181 -1901 0
-1182 -1902 0
-1183 -1903 0
-1184 -1904 0
-1181 -1913 0
-1182 -1914 0
-1183 -1915 0
-1184 -1916 0
-1181 -2961 0
-1182 -2962 0
-1183 -2963 0
-1184 -2964 0
-1185 -1601 0
-1186 -1602 0
-1187 -1603 0
-1188 -1604 0
-1185 -2673 0
-1186 -2674 0
-1187 -2675 0
-1188 -2676 0
-1185 -1681 0
-1186 -1682 0
-1187 -1683 0
-1188 -1684 0
-1185 -5777 0
-1186 -5778 0
-1187 -5779 0
-1188 -5780 0
-1185 -2225 0
-1186 -2226 0
-1187 -2227 0
-1188 -2228 0
-1185 -5305 0
-1186 -5306 0
-1187 -5307 0
-1188 -5308 0
-1185 -2241 0
-1186 -2242 0
-1187 -2243 0
-1188 -2244 0
-1185 -2261 0
-1186 -2262 0
-1187 -2263 0
-1188 -2264 0
-1185 -2789 0
-1186 -2790 0
-1187 -2791 0
-1188 -2792 0
-1185 -4889 0
-1186 -4890 0
-1187 -4891 0
-1188 -4892 0
-1185 -1317 0
-1186 -1318 0
-1187 -1319 0
-1188 -1320 0
-1185 -2869 0
-1186 -2870 0
-1187 -2871 0
-1188 -2872 0
-1185 -4405 0
-1186 -4406 0
-1187 -4407 0
-1188 -4408 0
-1185 -1345 0
-1186 -1346 0
-1187 -1347 0
-1188 -1348 0
-1185 -3393 0
-1186 -3394 0
-1187 -3395 0
-1188 -3396 0
-1185 -2893 0
-1186 -2894 0
-1187 -2895 0
-1188 -2896 0
-1185 -4433 0
-1186 -4434 0
-1187 -4435 0
-1188 -4436 0
-1185 -1905 0
-1186 -1906 0
-1187 -1907 0
-1188 -1908 0
-1185 -1917 0
-1186 -1918 0
-1187 -1919 0
-1188 -1920 0
-1189 -2069 0
-1190 -2070 0
-1191 -2071 0
-1192 -2072 0
-1189 -2117 0
-1190 -2118 0
-1191 -2119 0
-1192 -2120 0
-1189 -5213 0
-1190 -5214 0
-1191 -5215 0
-1192 -5216 0
-1189 -1697 0
-1190 -1698 0
-1191 -1699 0
-1192 -1700 0
-1189 -1193 0
-1190 -1194 0
-1191 -1195 0
-1192 -1196 0
-1189 -1197 0
-1190 -1198 0
-1191 -1199 0
-1192 -1200 0
-1189 -1201 0
-1190 -1202 0
-1191 -1203 0
-1192 -1204 0
-1189 -5813 0
-1190 -5814 0
-1191 -5815 0
-1192 -5816 0
-1189 -1725 0
-1190 -1726 0
-1191 -1727 0
-1192 -1728 0
-1189 -2269 0
-1190 -2270 0
-1191 -2271 0
-1192 -2272 0
-1189 -3821 0
-1190 -3822 0
-1191 -3823 0
-1192 -3824 0
-1189 -2301 0
-1190 -2302 0
-1191 -2303 0
-1192 -2304 0
-1189 -2341 0
-1190 -2342 0
-1191 -2343 0
-1192 -2344 0
-1189 -4409 0
-1190 -4410 0
-1191 -4411 0
-1192 -4412 0
-1189 -1341 0
-1190 -1342 0
-1191 -1343 0
-1192 -1344 0
-1189 -2885 0
-1190 -2886 0
-1191 -2887 0
-1192 -2888 0
-1189 -2889 0
-1190 -2890 0
-1191 -2891 0
-1192 -2892 0
-1189 -4429 0
-1190 -4430 0
-1191 -4431 0
-1192 -4432 0
-1189 -3921 0
-1190 -3922 0
-1191 -3923 0
-1192 -3924 0
-1189 -3961 0
-1190 -3962 0
-1191 -3963 0
-1192 -3964 0
-1189 -6053 0
-1190 -6054 0
-1191 -6055 0
-1192 -6056 0
-1189 -4529 0
-1190 -4530 0
-1191 -4531 0
-1192 -4532 0
-1189 -3509 0
-1190 -3510 0
-1191 -3511 0
-1192 -3512 0
-1193 -1565 0
-1194 -1566 0
-1195 -1567 0
-1196 -1568 0
-1193 -1577 0
-1194 -1578 0
-1195 -1579 0
-1196 -1580 0
-1193 -1609 0
-1194 -1610 0
-1195 -1611 0
-1196 -1612 0
-1193 -5217 0
-1194 -5218 0
-1195 -5219 0
-1196 -5220 0
-1193 -5309 0
-1194 -5310 0
-1195 -5311 0
-1196 -5312 0
-1193 -2253 0
-1194 -2254 0
-1195 -2255 0
-1196 -2256 0
-1193 -1265 0
-1194 -1266 0
-1195 -1267 0
-1196 -1268 0
-1193 -3825 0
-1194 -3826 0
-1195 -3827 0
-1196 -3828 0
-1193 -4413 0
-1194 -4414 0
-1195 -4415 0
-1196 -4416 0
-1193 -1345 0
-1194 -1346 0
-1195 -1347 0
-1196 -1348 0
-1193 -2889 0
-1194 -2890 0
-1195 -2891 0
-1196 -2892 0
-1193 -2893 0
-1194 -2894 0
-1195 -2895 0
-1196 -2896 0
-1193 -4433 0
-1194 -4434 0
-1195 -4435 0
-1196 -4436 0
-1193 -1881 0
-1194 -1882 0
-1195 -1883 0
-1196 -1884 0
-1193 -1969 0
-1194 -1970 0
-1195 -1971 0
-1196 -1972 0
-1193 -3513 0
-1194 -3514 0
-1195 -3515 0
-1196 -3516 0
-1193 -6073 0
-1194 -6074 0
-1195 -6075 0
-1196 -6076 0
-1197 -4629 0
-1198 -4630 0
-1199 -4631 0
-1200 -4632 0
-1197 -2105 0
-1198 -2106 0
-1199 -2107 0
-1200 -2108 0
-1197 -2677 0
-1198 -2678 0
-1199 -2679 0
-1200 -2680 0
-1197 -1693 0
-1198 -1694 0
-1199 -1695 0
-1200 -1696 0
-1197 -5789 0
-1198 -5790 0
-1199 -5791 0
-1200 -5792 0
-1197 -5313 0
-1198 -5314 0
-1199 -5315 0
-1200 -5316 0
-1197 -1733 0
-1198 -1734 0
-1199 -1735 0
-1200 -1736 0
-1197 -1225 0
-1198 -1226 0
-1199 -1227 0
-1200 -1228 0
-1197 -3833 0
-1198 -3834 0
-1199 -3835 0
-1200 -3836 0
-1197 -2305 0
-1198 -2306 0
-1199 -2307 0
-1200 -2308 0
-1197 -2353 0
-1198 -2354 0
-1199 -2355 0
-1200 -2356 0
-1197 -1353 0
-1198 -1354 0
-1199 -1355 0
-1200 -1356 0
-1197 -2897 0
-1198 -2898 0
-1199 -2899 0
-1200 -2900 0
-1197 -3929 0
-1198 -3930 0
-1199 -3931 0
-1200 -3932 0
-1197 -1885 0
-1198 -1886 0
-1199 -1887 0
-1200 -1888 0
-1197 -4441 0
-1198 -4442 0
-1199 -4443 0
-1200 -4444 0
-1197 -1381 0
-1198 -1382 0
-1199 -1383 0
-1200 -1384 0
-1197 -3965 0
-1198 -3966 0
-1199 -3967 0
-1200 -3968 0
-1197 -1933 0
-1198 -1934 0
-1199 -1935 0
-1200 -1936 0
-1197 -3501 0
-1198 -3502 0
-1199 -3503 0
-1200 -3504 0
-1197 -4533 0
-1198 -4534 0
-1199 -4535 0
-1200 -4536 0
-1197 -2513 0
-1198 -2514 0
-1199 -2515 0
-1200 -2516 0
-1201 -4641 0
-1202 -4642 0
-1203 -4643 0
-1204 -4644 0
-1201 -4649 0
-1202 -4650 0
-1203 -4651 0
-1204 -4652 0
-1201 -4681 0
-1202 -4682 0
-1203 -4683 0
-1204 -4684 0
-1201 -1713 0
-1202 -1714 0
-1203 -1715 0
-1204 -1716 0
-1201 -1749 0
-1202 -1750 0
-1203 -1751 0
-1204 -1752 0
-1201 -3317 0
-1202 -3318 0
-1203 -3319 0
-1204 -3320 0
-1201 -2297 0
-1202 -2298 0
-1203 -2299 0
-1204 -2300 0
-1201 -2317 0
-1202 -2318 0
-1203 -2319 0
-1204 -2320 0
-1201 -3857 0
-1202 -3858 0
-1203 -3859 0
-1204 -3860 0
-1201 -2369 0
-1202 -2370 0
-1203 -2371 0
-1204 -2372 0
-1201 -4429 0
-1202 -4430 0
-1203 -4431 0
-1204 -4432 0
-1201 -1361 0
-1202 -1362 0
-1203 -1363 0
-1204 -1364 0
-1201 -4449 0
-1202 -4450 0
-1203 -4451 0
-1204 -4452 0
-1201 -2925 0
-1202 -2926 0
-1203 -2927 0
-1204 -2928 0
-1201 -2929 0
-1202 -2930 0
-1203 -2931 0
-1204 -2932 0
-1201 -1905 0
-1202 -1906 0
-1203 -1907 0
-1204 -1908 0
-1201 -3977 0
-1202 -3978 0
-1203 -3979 0
-1204 -3980 0
-1201 -5529 0
-1202 -5530 0
-1203 -5531 0
-1204 -5532 0
-1201 -2977 0
-1202 -2978 0
-1203 -2979 0
-1204 -2980 0
-1201 -2533 0
-1202 -2534 0
-1203 -2535 0
-1204 -2536 0
-1205 -4453 0
-1206 -4454 0
-1207 -4455 0
-1208 -4456 0
-1205 -1293 0
-1206 -1294 0
-1207 -1295 0
-1208 -1296 0
-1205 -5349 0
-1206 -5350 0
-1207 -5351 0
-1208 -5352 0
-1205 -1957 0
-1206 -1958 0
-1207 -1959 0
-1208 -1960 0
-1205 -1209 0
-1206 -1210 0
-1207 -1211 0
-1208 -1212 0
-1205 -2117 0
-1206 -2118 0
-1207 -2119 0
-1208 -2120 0
-1205 -4037 0
-1206 -4038 0
-1207 -4039 0
-1208 -4040 0
-1205 -3425 0
-1206 -3426 0
-1207 -3427 0
-1208 -3428 0
-1205 -1381 0
-1206 -1382 0
-1207 -1383 0
-1208 -1384 0
-1205 -4845 0
-1206 -4846 0
-1207 -4847 0
-1208 -4848 0
-1205 -3941 0
-1206 -3942 0
-1207 -3943 0
-1208 -3944 0
-1209 -4677 0
-1210 -4678 0
-1211 -4679 0
-1212 -4680 0
-1209 -2141 0
-1210 -2142 0
-1211 -2143 0
-1212 -2144 0
-1209 -1721 0
-1210 -1722 0
-1211 -1723 0
-1212 -1724 0
-1209 -1213 0
-1210 -1214 0
-1211 -1215 0
-1212 -1216 0
-1209 -1225 0
-1210 -1226 0
-1211 -1227 0
-1212 -1228 0
-1209 -4809 0
-1210 -4810 0
-1211 -4811 0
-1212 -4812 0
-1209 -1749 0
-1210 -1750 0
-1211 -1751 0
-1212 -1752 0
-1209 -2281 0
-1210 -2282 0
-1211 -2283 0
-1212 -2284 0
-1209 -3337 0
-1210 -3338 0
-1211 -3339 0
-1212 -3340 0
-1209 -2317 0
-1210 -2318 0
-1211 -2319 0
-1212 -2320 0
-1209 -4925 0
-1210 -4926 0
-1211 -4927 0
-1212 -4928 0
-1209 -2389 0
-1210 -2390 0
-1211 -2391 0
-1212 -2392 0
-1209 -2945 0
-1210 -2946 0
-1211 -2947 0
-1212 -2948 0
-1209 -4481 0
-1210 -4482 0
-1211 -4483 0
-1212 -4484 0
-1209 -1969 0
-1210 -1970 0
-1211 -1971 0
-1212 -1972 0
-1209 -4061 0
-1210 -4062 0
-1211 -4063 0
-1212 -4064 0
-1209 -2029 0
-1210 -2030 0
-1211 -2031 0
-1212 -2032 0
-1213 -2689 0
-1214 -2690 0
-1215 -2691 0
-1216 -2692 0
-1213 -3977 0
-1214 -3978 0
-1215 -3979 0
-1216 -3980 0
-1213 -1589 0
-1214 -1590 0
-1215 -1591 0
-1216 -1592 0
-1213 -3525 0
-1214 -3526 0
-1215 -3527 0
-1216 -3528 0
-1213 -2285 0
-1214 -2286 0
-1215 -2287 0
-1216 -2288 0
-1213 -2033 0
-1214 -2034 0
-1215 -2035 0
-1216 -2036 0
-1213 -4469 0
-1214 -4470 0
-1215 -4471 0
-1216 -4472 0
-1217 -2693 0
-1218 -2694 0
-1219 -2695 0
-1220 -2696 0
-1217 -1953 0
-1218 -1954 0
-1219 -1955 0
-1220 -1956 0
-1217 -2993 0
-1218 -2994 0
-1219 -2995 0
-1220 -2996 0
-1217 -3893 0
-1218 -3894 0
-1219 -3895 0
-1220 -3896 0
-1217 -4653 0
-1218 -4654 0
-1219 -4655 0
-1220 -4656 0
-1217 -1733 0
-1218 -1734 0
-1219 -1735 0
-1220 -1736 0
-1217 -4685 0
-1218 -4686 0
-1219 -4687 0
-1220 -4688 0
-1217 -3537 0
-1218 -3538 0
-1219 -3539 0
-1220 -3540 0
-1217 -2401 0
-1218 -2402 0
-1219 -2403 0
-1220 -2404 0
-1217 -3945 0
-1218 -3946 0
-1219 -3947 0
-1220 -3948 0
-1221 -3617 0
-1222 -3618 0
-1223 -3619 0
-1224 -3620 0
-1221 -3369 0
-1222 -3370 0
-1223 -3371 0
-1224 -3372 0
-1221 -4657 0
-1222 -4658 0
-1223 -4659 0
-1224 -4660 0
-1221 -1981 0
-1222 -1982 0
-1223 -1983 0
-1224 -1984 0
-1221 -2117 0
-1222 -2118 0
-1223 -2119 0
-1224 -2120 0
-1221 -4941 0
-1222 -4942 0
-1223 -4943 0
-1224 -4944 0
-1221 -5841 0
-1222 -5842 0
-1223 -5843 0
-1224 -5844 0
-1221 -3553 0
-1222 -3554 0
-1223 -3555 0
-1224 -3556 0
-1221 -5877 0
-1222 -5878 0
-1223 -5879 0
-1224 -5880 0
-1225 -2053 0
-1226 -2054 0
-1227 -2055 0
-1228 -2056 0
-1225 -4665 0
-1226 -4666 0
-1227 -4667 0
-1228 -4668 0
-1225 -2145 0
-1226 -2146 0
-1227 -2147 0
-1228 -2148 0
-1225 -3685 0
-1226 -3686 0
-1227 -3687 0
-1228 -3688 0
-1225 -2693 0
-1226 -2694 0
-1227 -2695 0
-1228 -2696 0
-1225 -1733 0
-1226 -1734 0
-1227 -1735 0
-1228 -1736 0
-1225 -1753 0
-1226 -1754 0
-1227 -1755 0
-1228 -1756 0
-1225 -4825 0
-1226 -4826 0
-1227 -4827 0
-1228 -4828 0
-1225 -2413 0
-1226 -2414 0
-1227 -2415 0
-1228 -2416 0
-1225 -1393 0
-1226 -1394 0
-1227 -1395 0
-1228 -1396 0
-1225 -4481 0
-1226 -4482 0
-1227 -4483 0
-1228 -4484 0
-1225 -2957 0
-1226 -2958 0
-1227 -2959 0
-1228 -2960 0
-1225 -3545 0
-1226 -3546 0
-1227 -3547 0
-1228 -3548 0
-1229 -4025 0
-1230 -4026 0
-1231 -4027 0
-1232 -4028 0
-1229 -3909 0
-1230 -3910 0
-1231 -3911 0
-1232 -3912 0
-1229 -3557 0
-1230 -3558 0
-1231 -3559 0
-1232 -3560 0
-1229 -5489 0
-1230 -5490 0
-1231 -5491 0
-1232 -5492 0
-1233 -3085 0
-1234 -3086 0
-1235 -3087 0
-1236 -3088 0
-1233 -2329 0
-1234 -2330 0
-1235 -2331 0
-1236 -2332 0
-1233 -1565 0
-1234 -1566 0
-1235 -1567 0
-1236 -1568 0
-1233 -1825 0
-1234 -1826 0
-1235 -1827 0
-1236 -1828 0
-1233 -2349 0
-1234 -2350 0
-1235 -2351 0
-1236 -2352 0
-1233 -2369 0
-1234 -2370 0
-1235 -2371 0
-1236 -2372 0
-1233 -1237 0
-1234 -1238 0
-1235 -1239 0
-1236 -1240 0
-1233 -4321 0
-1234 -4322 0
-1235 -4323 0
-1236 -4324 0
-1233 -2033 0
-1234 -2034 0
-1235 -2035 0
-1236 -2036 0
-1233 -1781 0
-1234 -1782 0
-1235 -1783 0
-1236 -1784 0
-1237 -2185 0
-1238 -2186 0
-1239 -2187 0
-1240 -2188 0
-1237 -4501 0
-1238 -4502 0
-1239 -4503 0
-1240 -4504 0
-1237 -1569 0
-1238 -1570 0
-1239 -1571 0
-1240 -1572 0
-1237 -1829 0
-1238 -1830 0
-1239 -1831 0
-1240 -1832 0
-1237 -2353 0
-1238 -2354 0
-1239 -2355 0
-1240 -2356 0
-1237 -3009 0
-1238 -3010 0
-1239 -3011 0
-1240 -3012 0
-1237 -1265 0
-1238 -1266 0
-1239 -1267 0
-1240 -1268 0
-1237 -1757 0
-1238 -1758 0
-1239 -1759 0
-1240 -1760 0
-1237 -4325 0
-1238 -4326 0
-1239 -4327 0
-1240 -4328 0
-1237 -2037 0
-1238 -2038 0
-1239 -2039 0
-1240 -2040 0
-1241 -1285 0
-1242 -1286 0
-1243 -1287 0
-1244 -1288 0
-1241 -1813 0
-1242 -1814 0
-1243 -1815 0
-1244 -1816 0
-1241 -2325 0
-1242 -2326 0
-1243 -2327 0
-1244 -2328 0
-1241 -2337 0
-1242 -2338 0
-1243 -2339 0
-1244 -2340 0
-1241 -4513 0
-1242 -4514 0
-1243 -4515 0
-1244 -4516 0
-1241 -3037 0
-1242 -3038 0
-1243 -3039 0
-1244 -3040 0
-1241 -1873 0
-1242 -1874 0
-1243 -1875 0
-1244 -1876 0
-1241 -1245 0
-1242 -1246 0
-1243 -1247 0
-1244 -1248 0
-1241 -1761 0
-1242 -1762 0
-1243 -1763 0
-1244 -1764 0
-1241 -1253 0
-1242 -1254 0
-1243 -1255 0
-1244 -1256 0
-1241 -3561 0
-1242 -3562 0
-1243 -3563 0
-1244 -3564 0
-1241 -3961 0
-1242 -3962 0
-1243 -3963 0
-1244 -3964 0
-1241 -3709 0
-1242 -3710 0
-1243 -3711 0
-1244 -3712 0
-1245 -1289 0
-1246 -1290 0
-1247 -1291 0
-1248 -1292 0
-1245 -4113 0
-1246 -4114 0
-1247 -4115 0
-1248 -4116 0
-1245 -1817 0
-1246 -1818 0
-1247 -1819 0
-1248 -1820 0
-1245 -2201 0
-1246 -2202 0
-1247 -2203 0
-1248 -2204 0
-1245 -4505 0
-1246 -4506 0
-1247 -4507 0
-1248 -4508 0
-1245 -2341 0
-1246 -2342 0
-1247 -2343 0
-1248 -2344 0
-1245 -4517 0
-1246 -4518 0
-1247 -4519 0
-1248 -4520 0
-1245 -3041 0
-1246 -3042 0
-1247 -3043 0
-1248 -3044 0
-1245 -1249 0
-1246 -1250 0
-1247 -1251 0
-1248 -1252 0
-1245 -1257 0
-1246 -1258 0
-1247 -1259 0
-1248 -1260 0
-1249 -2185 0
-1250 -2186 0
-1251 -2187 0
-1252 -2188 0
-1249 -1297 0
-1250 -1298 0
-1251 -1299 0
-1252 -1300 0
-1249 -1829 0
-1250 -1830 0
-1251 -1831 0
-1252 -1832 0
-1249 -4525 0
-1250 -4526 0
-1251 -4527 0
-1252 -4528 0
-1249 -2353 0
-1250 -2354 0
-1251 -2355 0
-1252 -2356 0
-1249 -1761 0
-1250 -1762 0
-1251 -1763 0
-1252 -1764 0
-1249 -3709 0
-1250 -3710 0
-1251 -3711 0
-1252 -3712 0
-1249 -1645 0
-1250 -1646 0
-1251 -1647 0
-1252 -1648 0
-1249 -3053 0
-1250 -3054 0
-1251 -3055 0
-1252 -3056 0
-1253 -4117 0
-1254 -4118 0
-1255 -4119 0
-1256 -4120 0
-1253 -3681 0
-1254 -3682 0
-1255 -3683 0
-1256 -3684 0
-1253 -2221 0
-1254 -2222 0
-1255 -2223 0
-1256 -2224 0
-1253 -3289 0
-1254 -3290 0
-1255 -3291 0
-1256 -3292 0
-1253 -5865 0
-1254 -5866 0
-1255 -5867 0
-1256 -5868 0
-1253 -1257 0
-1254 -1258 0
-1255 -1259 0
-1256 -1260 0
-1253 -5377 0
-1254 -5378 0
-1255 -5379 0
-1256 -5380 0
-1253 -1305 0
-1254 -1306 0
-1255 -1307 0
-1256 -1308 0
-1253 -2405 0
-1254 -2406 0
-1255 -2407 0
-1256 -2408 0
-1253 -3441 0
-1254 -3442 0
-1255 -3443 0
-1256 -3444 0
-1253 -3977 0
-1254 -3978 0
-1255 -3979 0
-1256 -3980 0
-1253 -4513 0
-1254 -4514 0
-1255 -4515 0
-1256 -4516 0
-1253 -6065 0
-1254 -6066 0
-1255 -6067 0
-1256 -6068 0
-1253 -3001 0
-1254 -3002 0
-1255 -3003 0
-1256 -3004 0
-1253 -3057 0
-1254 -3058 0
-1255 -3059 0
-1256 -3060 0
-1257 -5265 0
-1258 -5266 0
-1259 -5267 0
-1260 -5268 0
-1257 -2225 0
-1258 -2226 0
-1259 -2227 0
-1260 -2228 0
-1257 -1769 0
-1258 -1770 0
-1259 -1771 0
-1260 -1772 0
-1257 -1265 0
-1258 -1266 0
-1259 -1267 0
-1260 -1268 0
-1257 -4397 0
-1258 -4398 0
-1259 -4399 0
-1260 -4400 0
-1257 -2369 0
-1258 -2370 0
-1259 -2371 0
-1260 -2372 0
-1257 -2389 0
-1258 -2390 0
-1259 -2391 0
-1260 -2392 0
-1257 -1885 0
-1258 -1886 0
-1259 -1887 0
-1260 -1888 0
-1257 -4517 0
-1258 -4518 0
-1259 -4519 0
-1260 -4520 0
-1257 -4529 0
-1258 -4530 0
-1259 -4531 0
-1260 -4532 0
-1257 -6069 0
-1258 -6070 0
-1259 -6071 0
-1260 -6072 0
-1257 -1513 0
-1258 -1514 0
-1259 -1515 0
-1260 -1516 0
-1257 -3061 0
-1258 -3062 0
-1259 -3063 0
-1260 -3064 0
-1261 -4101 0
-1262 -4102 0
-1263 -4103 0
-1264 -4104 0
-1261 -2453 0
-1262 -2454 0
-1263 -2455 0
-1264 -2456 0
-1261 -5273 0
-1262 -5274 0
-1263 -5275 0
-1264 -5276 0
-1261 -2081 0
-1262 -2082 0
-1263 -2083 0
-1264 -2084 0
-1261 -2721 0
-1262 -2722 0
-1263 -2723 0
-1264 -2724 0
-1261 -2401 0
-1262 -2402 0
-1263 -2403 0
-1264 -2404 0
-1261 -2989 0
-1262 -2990 0
-1263 -2991 0
-1264 -2992 0
-1261 -2373 0
-1262 -2374 0
-1263 -2375 0
-1264 -2376 0
-1261 -1901 0
-1262 -1902 0
-1263 -1903 0
-1264 -1904 0
-1261 -2005 0
-1262 -2006 0
-1263 -2007 0
-1264 -2008 0
-1261 -3065 0
-1262 -3066 0
-1263 -3067 0
-1264 -3068 0
-1265 -2721 0
-1266 -2722 0
-1267 -2723 0
-1268 -2724 0
-1265 -4529 0
-1266 -4530 0
-1267 -4531 0
-1268 -4532 0
-1265 -5813 0
-1266 -5814 0
-1267 -5815 0
-1268 -5816 0
-1265 -1857 0
-1266 -1858 0
-1267 -1859 0
-1268 -1860 0
-1265 -1605 0
-1266 -1606 0
-1267 -1607 0
-1268 -1608 0
-1265 -2381 0
-1266 -2382 0
-1267 -2383 0
-1268 -2384 0
-1265 -2013 0
-1266 -2014 0
-1267 -2015 0
-1268 -2016 0
-1265 -2413 0
-1266 -2414 0
-1267 -2415 0
-1268 -2416 0
-1265 -3953 0
-1266 -3954 0
-1267 -3955 0
-1268 -3956 0
-1265 -1913 0
-1266 -1914 0
-1267 -1915 0
-1268 -1916 0
-1269 -1285 0
-1270 -1286 0
-1271 -1287 0
-1272 -1288 0
-1269 -1805 0
-1270 -1806 0
-1271 -1807 0
-1272 -1808 0
-1269 -4881 0
-1270 -4882 0
-1271 -4883 0
-1272 -4884 0
-1269 -3093 0
-1270 -3094 0
-1271 -3095 0
-1272 -3096 0
-1269 -2341 0
-1270 -2342 0
-1271 -2343 0
-1272 -2344 0
-1269 -4141 0
-1270 -4142 0
-1271 -4143 0
-1272 -4144 0
-1269 -4537 0
-1270 -4538 0
-1271 -4539 0
-1272 -4540 0
-1269 -2385 0
-1270 -2386 0
-1271 -2387 0
-1272 -2388 0
-1269 -1877 0
-1270 -1878 0
-1271 -1879 0
-1272 -1880 0
-1269 -1625 0
-1270 -1626 0
-1271 -1627 0
-1272 -1628 0
-1269 -4705 0
-1270 -4706 0
-1271 -4707 0
-1272 -4708 0
-1269 -1509 0
-1270 -1510 0
-1271 -1511 0
-1272 -1512 0
-1269 -1273 0
-1270 -1274 0
-1271 -1275 0
-1272 -1276 0
-1273 -1801 0
-1274 -1802 0
-1275 -1803 0
-1276 -1804 0
-1273 -1293 0
-1274 -1294 0
-1275 -1295 0
-1276 -1296 0
-1273 -2189 0
-1274 -2190 0
-1275 -2191 0
-1276 -2192 0
-1273 -3101 0
-1274 -3102 0
-1275 -3103 0
-1276 -3104 0
-1273 -1313 0
-1274 -1314 0
-1275 -1315 0
-1276 -1316 0
-1273 -4893 0
-1274 -4894 0
-1275 -4895 0
-1276 -4896 0
-1273 -2221 0
-1274 -2222 0
-1275 -2223 0
-1276 -2224 0
-1273 -2353 0
-1274 -2354 0
-1275 -2355 0
-1276 -2356 0
-1273 -5809 0
-1274 -5810 0
-1275 -5811 0
-1276 -5812 0
-1273 -4541 0
-1274 -4542 0
-1275 -4543 0
-1276 -4544 0
-1273 -4549 0
-1274 -4550 0
-1275 -4551 0
-1276 -4552 0
-1273 -1397 0
-1274 -1398 0
-1275 -1399 0
-1276 -1400 0
-1273 -2937 0
-1274 -2938 0
-1275 -2939 0
-1276 -2940 0
-1273 -1405 0
-1274 -1406 0
-1275 -1407 0
-1276 -1408 0
-1277 -1285 0
-1278 -1286 0
-1279 -1287 0
-1280 -1288 0
-1277 -2069 0
-1278 -2070 0
-1279 -2071 0
-1280 -2072 0
-1277 -1817 0
-1278 -1818 0
-1279 -1819 0
-1280 -1820 0
-1277 -4009 0
-1278 -4010 0
-1279 -4011 0
-1280 -4012 0
-1277 -3117 0
-1278 -3118 0
-1279 -3119 0
-1280 -3120 0
-1277 -5289 0
-1278 -5290 0
-1279 -5291 0
-1280 -5292 0
-1277 -2741 0
-1278 -2742 0
-1279 -2743 0
-1280 -2744 0
-1277 -2633 0
-1278 -2634 0
-1279 -2635 0
-1280 -2636 0
-1277 -2393 0
-1278 -2394 0
-1279 -2395 0
-1280 -2396 0
-1277 -2521 0
-1278 -2522 0
-1279 -2523 0
-1280 -2524 0
-1281 -1285 0
-1282 -1286 0
-1283 -1287 0
-1284 -1288 0
-1281 -2193 0
-1282 -2194 0
-1283 -2195 0
-1284 -2196 0
-1281 -1301 0
-1282 -1302 0
-1283 -1303 0
-1284 -1304 0
-1281 -1825 0
-1282 -1826 0
-1283 -1827 0
-1284 -1828 0
-1281 -1321 0
-1282 -1322 0
-1283 -1323 0
-1284 -1324 0
-1281 -3129 0
-1282 -3130 0
-1283 -3131 0
-1284 -3132 0
-1281 -2749 0
-1282 -2750 0
-1283 -2751 0
-1284 -2752 0
-1281 -3013 0
-1282 -3014 0
-1283 -3015 0
-1284 -3016 0
-1281 -4569 0
-1282 -4570 0
-1283 -4571 0
-1284 -4572 0
-1281 -2397 0
-1282 -2398 0
-1283 -2399 0
-1284 -2400 0
-1285 -3585 0
-1286 -3586 0
-1287 -3587 0
-1288 -3588 0
-1285 -4097 0
-1286 -4098 0
-1287 -4099 0
-1288 -4100 0
-1285 -2065 0
-1286 -2066 0
-1287 -2067 0
-1288 -2068 0
-1285 -4153 0
-1286 -4154 0
-1287 -4155 0
-1288 -4156 0
-1285 -2109 0
-1286 -2110 0
-1287 -2111 0
-1288 -2112 0
-1285 -3133 0
-1286 -3134 0
-1287 -3135 0
-1288 -3136 0
-1285 -3581 0
-1286 -3582 0
-1287 -3583 0
-1288 -3584 0
-1285 -2153 0
-1286 -2154 0
-1287 -2155 0
-1288 -2156 0
-1285 -2197 0
-1286 -2198 0
-1287 -2199 0
-1288 -2200 0
-1285 -2273 0
-1286 -2274 0
-1287 -2275 0
-1288 -2276 0
-1285 -3321 0
-1286 -3322 0
-1287 -3323 0
-1288 -3324 0
-1285 -1289 0
-1286 -1290 0
-1287 -1291 0
-1288 -1292 0
-1285 -1293 0
-1286 -1294 0
-1287 -1295 0
-1288 -1296 0
-1285 -4853 0
-1286 -4854 0
-1287 -4855 0
-1288 -4856 0
-1285 -1813 0
-1286 -1814 0
-1287 -1815 0
-1288 -1816 0
-1285 -1305 0
-1286 -1306 0
-1287 -1307 0
-1288 -1308 0
-1285 -1829 0
-1286 -1830 0
-1287 -1831 0
-1288 -1832 0
-1285 -2345 0
-1286 -2346 0
-1287 -2347 0
-1288 -2348 0
-1285 -1325 0
-1286 -1326 0
-1287 -1327 0
-1288 -1328 0
-1285 -4901 0
-1286 -4902 0
-1287 -4903 0
-1288 -4904 0
-1285 -2369 0
-1286 -2370 0
-1287 -2371 0
-1288 -2372 0
-1285 -4573 0
-1286 -4574 0
-1287 -4575 0
-1288 -4576 0
-1285 -2401 0
-1286 -2402 0
-1287 -2403 0
-1288 -2404 0
-1285 -1901 0
-1286 -1902 0
-1287 -1903 0
-1288 -1904 0
-1285 -1409 0
-1286 -1410 0
-1287 -1411 0
-1288 -1412 0
-1285 -3461 0
-1286 -3462 0
-1287 -3463 0
-1288 -3464 0
-1285 -1417 0
-1286 -1418 0
-1287 -1419 0
-1288 -1420 0
-1285 -2453 0
-1286 -2454 0
-1287 -2455 0
-1288 -2456 0
-1285 -2525 0
-1286 -2526 0
-1287 -2527 0
-1288 -2528 0
-1285 -4013 0
-1286 -4014 0
-1287 -4015 0
-1288 -4016 0
-1285 -2481 0
-1286 -2482 0
-1287 -2483 0
-1288 -2484 0
-1285 -5557 0
-1286 -5558 0
-1287 -5559 0
-1288 -5560 0
-1285 -4537 0
-1286 -4538 0
-1287 -4539 0
-1288 -4540 0
-1285 -1477 0
-1286 -1478 0
-1287 -1479 0
-1288 -1480 0
-1285 -3013 0
-1286 -3014 0
-1287 -3015 0
-1288 -3016 0
-1285 -3017 0
-1286 -3018 0
-1287 -3019 0
-1288 -3020 0
-1285 -4553 0
-1286 -4554 0
-1287 -4555 0
-1288 -4556 0
-1285 -5573 0
-1286 -5574 0
-1287 -5575 0
-1288 -5576 0
-1285 -2521 0
-1286 -2522 0
-1287 -2523 0
-1288 -2524 0
-1285 -5577 0
-1286 -5578 0
-1287 -5579 0
-1288 -5580 0
-1289 -4101 0
-1290 -4102 0
-1291 -4103 0
-1292 -4104 0
-1289 -4617 0
-1290 -4618 0
-1291 -4619 0
-1292 -4620 0
-1289 -2069 0
-1290 -2070 0
-1291 -2071 0
-1292 -2072 0
-1289 -3137 0
-1290 -3138 0
-1291 -3139 0
-1292 -3140 0
-1289 -2633 0
-1290 -2634 0
-1291 -2635 0
-1292 -2636 0
-1289 -2637 0
-1290 -2638 0
-1291 -2639 0
-1292 -2640 0
-1289 -2741 0
-1290 -2742 0
-1291 -2743 0
-1292 -2744 0
-1289 -5301 0
-1290 -5302 0
-1291 -5303 0
-1292 -5304 0
-1289 -4857 0
-1290 -4858 0
-1291 -4859 0
-1292 -4860 0
-1289 -1297 0
-1290 -1298 0
-1291 -1299 0
-1292 -1300 0
-1289 -5397 0
-1290 -5398 0
-1291 -5399 0
-1292 -5400 0
-1289 -1817 0
-1290 -1818 0
-1291 -1819 0
-1292 -1820 0
-1289 -1833 0
-1290 -1834 0
-1291 -1835 0
-1292 -1836 0
-1289 -2349 0
-1290 -2350 0
-1291 -2351 0
-1292 -2352 0
-1289 -4905 0
-1290 -4906 0
-1291 -4907 0
-1292 -4908 0
-1289 -1377 0
-1290 -1378 0
-1291 -1379 0
-1292 -1380 0
-1289 -2405 0
-1290 -2406 0
-1291 -2407 0
-1292 -2408 0
-1289 -1905 0
-1290 -1906 0
-1291 -1907 0
-1292 -1908 0
-1289 -1413 0
-1290 -1414 0
-1291 -1415 0
-1292 -1416 0
-1289 -5561 0
-1290 -5562 0
-1291 -5563 0
-1292 -5564 0
-1289 -3017 0
-1290 -3018 0
-1291 -3019 0
-1292 -3020 0
-1289 -4557 0
-1290 -4558 0
-1291 -4559 0
-1292 -4560 0
-1293 -3145 0
-1294 -3146 0
-1295 -3147 0
-1296 -3148 0
-1293 -4705 0
-1294 -4706 0
-1295 -4707 0
-1296 -4708 0
-1293 -4709 0
-1294 -4710 0
-1295 -4711 0
-1296 -4712 0
-1293 -1693 0
-1294 -1694 0
-1295 -1695 0
-1296 -1696 0
-1293 -5305 0
-1294 -5306 0
-1295 -5307 0
-1296 -5308 0
-1293 -2749 0
-1294 -2750 0
-1295 -2751 0
-1296 -2752 0
-1293 -5825 0
-1294 -5826 0
-1295 -5827 0
-1296 -5828 0
-1293 -2253 0
-1294 -2254 0
-1295 -2255 0
-1296 -2256 0
-1293 -1297 0
-1294 -1298 0
-1295 -1299 0
-1296 -1300 0
-1293 -1825 0
-1294 -1826 0
-1295 -1827 0
-1296 -1828 0
-1293 -2341 0
-1294 -2342 0
-1295 -2343 0
-1296 -2344 0
-1293 -1837 0
-1294 -1838 0
-1295 -1839 0
-1296 -1840 0
-1293 -2377 0
-1294 -2378 0
-1295 -2379 0
-1296 -2380 0
-1293 -2409 0
-1294 -2410 0
-1295 -2411 0
-1296 -2412 0
-1293 -1909 0
-1294 -1910 0
-1295 -1911 0
-1296 -1912 0
-1293 -1421 0
-1294 -1422 0
-1295 -1423 0
-1296 -1424 0
-1293 -5013 0
-1294 -5014 0
-1295 -5015 0
-1296 -5016 0
-1293 -4541 0
-1294 -4542 0
-1295 -4543 0
-1296 -4544 0
-1293 -3021 0
-1294 -3022 0
-1295 -3023 0
-1296 -3024 0
-1293 -3029 0
-1294 -3030 0
-1295 -3031 0
-1296 -3032 0
-1293 -2525 0
-1294 -2526 0
-1295 -2527 0
-1296 -2528 0
-1293 -1517 0
-1294 -1518 0
-1295 -1519 0
-1296 -1520 0
-1297 -1425 0
-1298 -1426 0
-1299 -1427 0
-1300 -1428 0
-1297 -2413 0
-1298 -2414 0
-1299 -2415 0
-1300 -2416 0
-1297 -1697 0
-1298 -1698 0
-1299 -1699 0
-1300 -1700 0
-1297 -1829 0
-1298 -1830 0
-1299 -1831 0
-1300 -1832 0
-1297 -3149 0
-1298 -3150 0
-1299 -3151 0
-1300 -3152 0
-1297 -2157 0
-1298 -2158 0
-1299 -2159 0
-1300 -2160 0
-1297 -1913 0
-1298 -1914 0
-1299 -1915 0
-1300 -1916 0
-1301 -3597 0
-1302 -3598 0
-1303 -3599 0
-1304 -3600 0
-1301 -4109 0
-1302 -4110 0
-1303 -4111 0
-1304 -4112 0
-1301 -2081 0
-1302 -2082 0
-1303 -2083 0
-1304 -2084 0
-1301 -3657 0
-1302 -3658 0
-1303 -3659 0
-1304 -3660 0
-1301 -3165 0
-1302 -3166 0
-1303 -3167 0
-1304 -3168 0
-1301 -3693 0
-1302 -3694 0
-1303 -3695 0
-1304 -3696 0
-1301 -3721 0
-1302 -3722 0
-1303 -3723 0
-1304 -3724 0
-1301 -2217 0
-1302 -2218 0
-1303 -2219 0
-1304 -2220 0
-1301 -5297 0
-1302 -5298 0
-1303 -5299 0
-1304 -5300 0
-1301 -2757 0
-1302 -2758 0
-1303 -2759 0
-1304 -2760 0
-1301 -5829 0
-1302 -5830 0
-1303 -5831 0
-1304 -5832 0
-1301 -1305 0
-1302 -1306 0
-1303 -1307 0
-1304 -1308 0
-1301 -1841 0
-1302 -1842 0
-1303 -1843 0
-1304 -1844 0
-1301 -1845 0
-1302 -1846 0
-1303 -1847 0
-1304 -1848 0
-1301 -1341 0
-1302 -1342 0
-1303 -1343 0
-1304 -1344 0
-1301 -4461 0
-1302 -4462 0
-1303 -4463 0
-1304 -4464 0
-1301 -1925 0
-1302 -1926 0
-1303 -1927 0
-1304 -1928 0
-1301 -1429 0
-1302 -1430 0
-1303 -1431 0
-1304 -1432 0
-1301 -2461 0
-1302 -2462 0
-1303 -2463 0
-1304 -2464 0
-1301 -4037 0
-1302 -4038 0
-1303 -4039 0
-1304 -4040 0
-1301 -3033 0
-1302 -3034 0
-1303 -3035 0
-1304 -3036 0
-1301 -3037 0
-1302 -3038 0
-1303 -3039 0
-1304 -3040 0
-1301 -4577 0
-1302 -4578 0
-1303 -4579 0
-1304 -4580 0
-1305 -3601 0
-1306 -3602 0
-1307 -3603 0
-1308 -3604 0
-1305 -2121 0
-1306 -2122 0
-1307 -2123 0
-1308 -2124 0
-1305 -3169 0
-1306 -3170 0
-1307 -3171 0
-1308 -3172 0
-1305 -3697 0
-1306 -3698 0
-1307 -3699 0
-1308 -3700 0
-1305 -2753 0
-1306 -2754 0
-1307 -2755 0
-1308 -2756 0
-1305 -5313 0
-1306 -5314 0
-1307 -5315 0
-1308 -5316 0
-1305 -2761 0
-1306 -2762 0
-1307 -2763 0
-1308 -2764 0
-1305 -2289 0
-1306 -2290 0
-1307 -2291 0
-1308 -2292 0
-1305 -1849 0
-1306 -1850 0
-1307 -1851 0
-1308 -1852 0
-1305 -1345 0
-1306 -1346 0
-1307 -1347 0
-1308 -1348 0
-1305 -2373 0
-1306 -2374 0
-1307 -2375 0
-1308 -2376 0
-1305 -2381 0
-1306 -2382 0
-1307 -2383 0
-1308 -2384 0
-1305 -3961 0
-1306 -3962 0
-1307 -3963 0
-1308 -3964 0
-1305 -2433 0
-1306 -2434 0
-1307 -2435 0
-1308 -2436 0
-1305 -1929 0
-1306 -1930 0
-1307 -1931 0
-1308 -1932 0
-1305 -6045 0
-1306 -6046 0
-1307 -6047 0
-1308 -6048 0
-1305 -1961 0
-1306 -1962 0
-1307 -1963 0
-1308 -1964 0
-1305 -4041 0
-1306 -4042 0
-1307 -4043 0
-1308 -4044 0
-1305 -4553 0
-1306 -4554 0
-1307 -4555 0
-1308 -4556 0
-1305 -3037 0
-1306 -3038 0
-1307 -3039 0
-1308 -3040 0
-1305 -3041 0
-1306 -3042 0
-1307 -3043 0
-1308 -3044 0
-1305 -5613 0
-1306 -5614 0
-1307 -5615 0
-1308 -5616 0
-1309 -4581 0
-1310 -4582 0
-1311 -4583 0
-1312 -4584 0
-1309 -4129 0
-1310 -4130 0
-1311 -4131 0
-1312 -4132 0
-1309 -2109 0
-1310 -2110 0
-1311 -2111 0
-1312 -2112 0
-1309 -2221 0
-1310 -2222 0
-1311 -2223 0
-1312 -2224 0
-1309 -3249 0
-1310 -3250 0
-1311 -3251 0
-1312 -3252 0
-1309 -5301 0
-1310 -5302 0
-1311 -5303 0
-1312 -5304 0
-1309 -2293 0
-1310 -2294 0
-1311 -2295 0
-1312 -2296 0
-1309 -3333 0
-1310 -3334 0
-1311 -3335 0
-1312 -3336 0
-1309 -1893 0
-1310 -1894 0
-1311 -1895 0
-1312 -1896 0
-1309 -4465 0
-1310 -4466 0
-1311 -4467 0
-1312 -4468 0
-1309 -1421 0
-1310 -1422 0
-1311 -1423 0
-1312 -1424 0
-1309 -3473 0
-1310 -3474 0
-1311 -3475 0
-1312 -3476 0
-1309 -2465 0
-1310 -2466 0
-1311 -2467 0
-1312 -2468 0
-1309 -5025 0
-1310 -5026 0
-1311 -5027 0
-1312 -5028 0
-1309 -3045 0
-1310 -3046 0
-1311 -3047 0
-1312 -3048 0
-1309 -5621 0
-1310 -5622 0
-1311 -5623 0
-1312 -5624 0
-1313 -1961 0
-1314 -1962 0
-1315 -1963 0
-1316 -1964 0
-1313 -5033 0
-1314 -5034 0
-1315 -5035 0
-1316 -5036 0
-1313 -1721 0
-1314 -1722 0
-1315 -1723 0
-1316 -1724 0
-1313 -3769 0
-1314 -3770 0
-1315 -3771 0
-1316 -3772 0
-1313 -2257 0
-1314 -2258 0
-1315 -2259 0
-1316 -2260 0
-1313 -2777 0
-1314 -2778 0
-1315 -2779 0
-1316 -2780 0
-1313 -2785 0
-1314 -2786 0
-1315 -2787 0
-1316 -2788 0
-1313 -2413 0
-1314 -2414 0
-1315 -2415 0
-1316 -2416 0
-1313 -2289 0
-1314 -2290 0
-1315 -2291 0
-1316 -2292 0
-1317 -4873 0
-1318 -4874 0
-1319 -4875 0
-1320 -4876 0
-1317 -3085 0
-1318 -3086 0
-1319 -3087 0
-1320 -3088 0
-1317 -3213 0
-1318 -3214 0
-1319 -3215 0
-1320 -3216 0
-1317 -3493 0
-1318 -3494 0
-1319 -3495 0
-1320 -3496 0
-1317 -5353 0
-1318 -5354 0
-1319 -5355 0
-1320 -5356 0
-1317 -5569 0
-1318 -5570 0
-1319 -5571 0
-1320 -5572 0
-1317 -2661 0
-1318 -2662 0
-1319 -2663 0
-1320 -2664 0
-1317 -2269 0
-1318 -2270 0
-1319 -2271 0
-1320 -2272 0
-1317 -2401 0
-1318 -2402 0
-1319 -2403 0
-1320 -2404 0
-1317 -1893 0
-1318 -1894 0
-1319 -1895 0
-1320 -1896 0
-1321 -5637 0
-1322 -5638 0
-1323 -5639 0
-1324 -5640 0
-1321 -5645 0
-1322 -5646 0
-1323 -5647 0
-1324 -5648 0
-1321 -3089 0
-1322 -3090 0
-1323 -3091 0
-1324 -3092 0
-1321 -3093 0
-1322 -3094 0
-1323 -3095 0
-1324 -3096 0
-1321 -4633 0
-1322 -4634 0
-1323 -4635 0
-1324 -4636 0
-1321 -2141 0
-1322 -2142 0
-1323 -2143 0
-1324 -2144 0
-1321 -4713 0
-1322 -4714 0
-1323 -4715 0
-1324 -4716 0
-1321 -4721 0
-1322 -4722 0
-1323 -4723 0
-1324 -4724 0
-1321 -2181 0
-1322 -2182 0
-1323 -2183 0
-1324 -2184 0
-1321 -3217 0
-1322 -3218 0
-1323 -3219 0
-1324 -3220 0
-1321 -5845 0
-1322 -5846 0
-1323 -5847 0
-1324 -5848 0
-1321 -4877 0
-1322 -4878 0
-1323 -4879 0
-1324 -4880 0
-1321 -1325 0
-1322 -1326 0
-1323 -1327 0
-1324 -1328 0
-1321 -1341 0
-1322 -1342 0
-1323 -1343 0
-1324 -1344 0
-1321 -4945 0
-1322 -4946 0
-1323 -4947 0
-1324 -4948 0
-1321 -2393 0
-1322 -2394 0
-1323 -2395 0
-1324 -2396 0
-1321 -1909 0
-1322 -1910 0
-1323 -1911 0
-1324 -1912 0
-1321 -2433 0
-1322 -2434 0
-1323 -2435 0
-1324 -2436 0
-1321 -2457 0
-1322 -2458 0
-1323 -2459 0
-1324 -2460 0
-1321 -6057 0
-1322 -6058 0
-1323 -6059 0
-1324 -6060 0
-1321 -1965 0
-1322 -1966 0
-1323 -1967 0
-1324 -1968 0
-1321 -3501 0
-1322 -3502 0
-1323 -3503 0
-1324 -3504 0
-1321 -4077 0
-1322 -4078 0
-1323 -4079 0
-1324 -4080 0
-1321 -4597 0
-1322 -4598 0
-1323 -4599 0
-1324 -4600 0
-1325 -3093 0
-1326 -3094 0
-1327 -3095 0
-1328 -3096 0
-1325 -3097 0
-1326 -3098 0
-1327 -3099 0
-1328 -3100 0
-1325 -4141 0
-1326 -4142 0
-1327 -4143 0
-1328 -4144 0
-1325 -4157 0
-1326 -4158 0
-1327 -4159 0
-1328 -4160 0
-1325 -1677 0
-1326 -1678 0
-1327 -1679 0
-1328 -1680 0
-1325 -3221 0
-1326 -3222 0
-1327 -3223 0
-1328 -3224 0
-1325 -1725 0
-1326 -1726 0
-1327 -1727 0
-1328 -1728 0
-1325 -2301 0
-1326 -2302 0
-1327 -2303 0
-1328 -2304 0
-1325 -5901 0
-1326 -5902 0
-1327 -5903 0
-1328 -5904 0
-1325 -4881 0
-1326 -4882 0
-1327 -4883 0
-1328 -4884 0
-1325 -5433 0
-1326 -5434 0
-1327 -5435 0
-1328 -5436 0
-1325 -1345 0
-1326 -1346 0
-1327 -1347 0
-1328 -1348 0
-1325 -4949 0
-1326 -4950 0
-1327 -4951 0
-1328 -4952 0
-1325 -1901 0
-1326 -1902 0
-1327 -1903 0
-1328 -1904 0
-1325 -1913 0
-1326 -1914 0
-1327 -1915 0
-1328 -1916 0
-1325 -2461 0
-1326 -2462 0
-1327 -2463 0
-1328 -2464 0
-1325 -4593 0
-1326 -4594 0
-1327 -4595 0
-1328 -4596 0
-1325 -4601 0
-1326 -4602 0
-1327 -4603 0
-1328 -4604 0
-1329 -1929 0
-1330 -1930 0
-1331 -1931 0
-1332 -1932 0
-1329 -4005 0
-1330 -4006 0
-1331 -4007 0
-1332 -4008 0
-1329 -3113 0
-1330 -3114 0
-1331 -3115 0
-1332 -3116 0
-1329 -3117 0
-1330 -3118 0
-1331 -3119 0
-1332 -3120 0
-1329 -1333 0
-1330 -1334 0
-1331 -1335 0
-1332 -1336 0
-1329 -1341 0
-1330 -1342 0
-1331 -1343 0
-1332 -1344 0
-1329 -2125 0
-1330 -2126 0
-1331 -2127 0
-1332 -2128 0
-1329 -4173 0
-1330 -4174 0
-1331 -4175 0
-1332 -4176 0
-1329 -2529 0
-1330 -2530 0
-1331 -2531 0
-1332 -2532 0
-1333 -5649 0
-1334 -5650 0
-1335 -5651 0
-1336 -5652 0
-1333 -5657 0
-1334 -5658 0
-1335 -5659 0
-1336 -5660 0
-1333 -3117 0
-1334 -3118 0
-1335 -3119 0
-1336 -3120 0
-1333 -3121 0
-1334 -3122 0
-1335 -3123 0
-1336 -3124 0
-1333 -3629 0
-1334 -3630 0
-1335 -3631 0
-1336 -3632 0
-1333 -1701 0
-1334 -1702 0
-1335 -1703 0
-1336 -1704 0
-1333 -3237 0
-1334 -3238 0
-1335 -3239 0
-1336 -3240 0
-1333 -1345 0
-1334 -1346 0
-1335 -1347 0
-1336 -1348 0
-1333 -5453 0
-1334 -5454 0
-1335 -5455 0
-1336 -5456 0
-1333 -4961 0
-1334 -4962 0
-1335 -4963 0
-1336 -4964 0
-1333 -1921 0
-1334 -1922 0
-1335 -1923 0
-1336 -1924 0
-1333 -2453 0
-1334 -2454 0
-1335 -2455 0
-1336 -2456 0
-1333 -2465 0
-1334 -2466 0
-1335 -2467 0
-1336 -2468 0
-1333 -4009 0
-1334 -4010 0
-1335 -4011 0
-1336 -4012 0
-1333 -2533 0
-1334 -2534 0
-1335 -2535 0
-1336 -2536 0
-1337 -2801 0
-1338 -2802 0
-1339 -2803 0
-1340 -2804 0
-1337 -1937 0
-1338 -1938 0
-1339 -1939 0
-1340 -1940 0
-1337 -5661 0
-1338 -5662 0
-1339 -5663 0
-1340 -5664 0
-1337 -3633 0
-1338 -3634 0
-1339 -3635 0
-1340 -3636 0
-1337 -3125 0
-1338 -3126 0
-1339 -3127 0
-1340 -3128 0
-1337 -3129 0
-1338 -3130 0
-1339 -3131 0
-1340 -3132 0
-1337 -1341 0
-1338 -1342 0
-1339 -1343 0
-1340 -1344 0
-1337 -5061 0
-1338 -5062 0
-1339 -5063 0
-1340 -5064 0
-1337 -3413 0
-1338 -3414 0
-1339 -3415 0
-1340 -3416 0
-1337 -2137 0
-1338 -2138 0
-1339 -2139 0
-1340 -2140 0
-1337 -4089 0
-1338 -4090 0
-1339 -4091 0
-1340 -4092 0
-1337 -2277 0
-1338 -2278 0
-1339 -2279 0
-1340 -2280 0
-1337 -5353 0
-1338 -5354 0
-1339 -5355 0
-1340 -5356 0
-1341 -4609 0
-1342 -4610 0
-1343 -4611 0
-1344 -4612 0
-1341 -5653 0
-1342 -5654 0
-1343 -5655 0
-1344 -5656 0
-1341 -3617 0
-1342 -3618 0
-1343 -3619 0
-1344 -3620 0
-1341 -5665 0
-1342 -5666 0
-1343 -5667 0
-1344 -5668 0
-1341 -3129 0
-1342 -3130 0
-1343 -3131 0
-1344 -3132 0
-1341 -3133 0
-1342 -3134 0
-1343 -3135 0
-1344 -3136 0
-1341 -3637 0
-1342 -3638 0
-1343 -3639 0
-1344 -3640 0
-1341 -3157 0
-1342 -3158 0
-1343 -3159 0
-1344 -3160 0
-1341 -4185 0
-1342 -4186 0
-1343 -4187 0
-1344 -4188 0
-1341 -2145 0
-1342 -2146 0
-1343 -2147 0
-1344 -2148 0
-1341 -2193 0
-1342 -2194 0
-1343 -2195 0
-1344 -2196 0
-1341 -3241 0
-1342 -3242 0
-1343 -3243 0
-1344 -3244 0
-1341 -5861 0
-1342 -5862 0
-1343 -5863 0
-1344 -5864 0
-1341 -2281 0
-1342 -2282 0
-1343 -2283 0
-1344 -2284 0
-1341 -2313 0
-1342 -2314 0
-1343 -2315 0
-1344 -2316 0
-1341 -1345 0
-1342 -1346 0
-1343 -1347 0
-1344 -1348 0
-1341 -1353 0
-1342 -1354 0
-1343 -1355 0
-1344 -1356 0
-1341 -1361 0
-1342 -1362 0
-1343 -1363 0
-1344 -1364 0
-1341 -1369 0
-1342 -1370 0
-1343 -1371 0
-1344 -1372 0
-1341 -3417 0
-1342 -3418 0
-1343 -3419 0
-1344 -3420 0
-1341 -1925 0
-1342 -1926 0
-1343 -1927 0
-1344 -1928 0
-1341 -2449 0
-1342 -2450 0
-1343 -2451 0
-1344 -2452 0
-1341 -1941 0
-1342 -1942 0
-1343 -1943 0
-1344 -1944 0
-1341 -1445 0
-1342 -1446 0
-1343 -1447 0
-1344 -1448 0
-1341 -2473 0
-1342 -2474 0
-1343 -2475 0
-1344 -2476 0
-1341 -6061 0
-1342 -6062 0
-1343 -6063 0
-1344 -6064 0
-1341 -3509 0
-1342 -3510 0
-1343 -3511 0
-1344 -3512 0
-1341 -1977 0
-1342 -1978 0
-1343 -1979 0
-1344 -1980 0
-1341 -2489 0
-1342 -2490 0
-1343 -2491 0
-1344 -2492 0
-1341 -5065 0
-1342 -5066 0
-1343 -5067 0
-1344 -5068 0
-1341 -2537 0
-1342 -2538 0
-1343 -2539 0
-1344 -2540 0
-1341 -2529 0
-1342 -2530 0
-1343 -2531 0
-1344 -2532 0
-1341 -4597 0
-1342 -4598 0
-1343 -4599 0
-1344 -4600 0
-1345 -4613 0
-1346 -4614 0
-1347 -4615 0
-1348 -4616 0
-1345 -3621 0
-1346 -3622 0
-1347 -3623 0
-1348 -3624 0
-1345 -2109 0
-1346 -2110 0
-1347 -2111 0
-1348 -2112 0
-1345 -2125 0
-1346 -2126 0
-1347 -2127 0
-1348 -2128 0
-1345 -3133 0
-1346 -3134 0
-1347 -3135 0
-1348 -3136 0
-1345 -3137 0
-1346 -3138 0
-1347 -3139 0
-1348 -3140 0
-1345 -3641 0
-1346 -3642 0
-1347 -3643 0
-1348 -3644 0
-1345 -4153 0
-1346 -4154 0
-1347 -4155 0
-1348 -4156 0
-1345 -2149 0
-1346 -2150 0
-1347 -2151 0
-1348 -2152 0
-1345 -2197 0
-1346 -2198 0
-1347 -2199 0
-1348 -2200 0
-1345 -3245 0
-1346 -3246 0
-1347 -3247 0
-1348 -3248 0
-1345 -2285 0
-1346 -2286 0
-1347 -2287 0
-1348 -2288 0
-1345 -2317 0
-1346 -2318 0
-1347 -2319 0
-1348 -2320 0
-1345 -4901 0
-1346 -4902 0
-1347 -4903 0
-1348 -4904 0
-1345 -1349 0
-1346 -1350 0
-1347 -1351 0
-1348 -1352 0
-1345 -1357 0
-1346 -1358 0
-1347 -1359 0
-1348 -1360 0
-1345 -1365 0
-1346 -1366 0
-1347 -1367 0
-1348 -1368 0
-1345 -1373 0
-1346 -1374 0
-1347 -1375 0
-1348 -1376 0
-1345 -4965 0
-1346 -4966 0
-1347 -4967 0
-1348 -4968 0
-1345 -2437 0
-1346 -2438 0
-1347 -2439 0
-1348 -2440 0
-1345 -1929 0
-1346 -1930 0
-1347 -1931 0
-1348 -1932 0
-1345 -1945 0
-1346 -1946 0
-1347 -1947 0
-1348 -1948 0
-1345 -1449 0
-1346 -1450 0
-1347 -1451 0
-1348 -1452 0
-1345 -2477 0
-1346 -2478 0
-1347 -2479 0
-1348 -2480 0
-1345 -4013 0
-1346 -4014 0
-1347 -4015 0
-1348 -4016 0
-1345 -5557 0
-1346 -5558 0
-1347 -5559 0
-1348 -5560 0
-1345 -3513 0
-1346 -3514 0
-1347 -3515 0
-1348 -3516 0
-1345 -1981 0
-1346 -1982 0
-1347 -1983 0
-1348 -1984 0
-1345 -2493 0
-1346 -2494 0
-1347 -2495 0
-1348 -2496 0
-1345 -5577 0
-1346 -5578 0
-1347 -5579 0
-1348 -5580 0
-1345 -2533 0
-1346 -2534 0
-1347 -2535 0
-1348 -2536 0
-1345 -2541 0
-1346 -2542 0
-1347 -2543 0
-1348 -2544 0
-1345 -4601 0
-1346 -4602 0
-1347 -4603 0
-1348 -4604 0
-1349 -2441 0
-1350 -2442 0
-1351 -2443 0
-1352 -2444 0
-1349 -1701 0
-1350 -1702 0
-1351 -1703 0
-1352 -1704 0
-1349 -4905 0
-1350 -4906 0
-1351 -4907 0
-1352 -4908 0
-1349 -5561 0
-1350 -5562 0
-1351 -5563 0
-1352 -5564 0
-1349 -3137 0
-1350 -3138 0
-1351 -3139 0
-1352 -3140 0
-1349 -5457 0
-1350 -5458 0
-1351 -5459 0
-1352 -5460 0
-1349 -5365 0
-1350 -5366 0
-1351 -5367 0
-1352 -5368 0
-1353 -2433 0
-1354 -2434 0
-1355 -2435 0
-1356 -2436 0
-1353 -4493 0
-1354 -4494 0
-1355 -4495 0
-1356 -4496 0
-1353 -1937 0
-1354 -1938 0
-1355 -1939 0
-1356 -1940 0
-1353 -4909 0
-1354 -4910 0
-1355 -4911 0
-1356 -4912 0
-1353 -1985 0
-1354 -1986 0
-1355 -1987 0
-1356 -1988 0
-1353 -2497 0
-1354 -2498 0
-1355 -2499 0
-1356 -2500 0
-1353 -3141 0
-1354 -3142 0
-1355 -3143 0
-1356 -3144 0
-1353 -1357 0
-1354 -1358 0
-1355 -1359 0
-1356 -1360 0
-1353 -3145 0
-1354 -3146 0
-1355 -3147 0
-1356 -3148 0
-1353 -4721 0
-1354 -4722 0
-1355 -4723 0
-1356 -4724 0
-1353 -2537 0
-1354 -2538 0
-1355 -2539 0
-1356 -2540 0
-1353 -2801 0
-1354 -2802 0
-1355 -2803 0
-1356 -2804 0
-1357 -1941 0
-1358 -1942 0
-1359 -1943 0
-1360 -1944 0
-1357 -3145 0
-1358 -3146 0
-1359 -3147 0
-1360 -3148 0
-1357 -1745 0
-1358 -1746 0
-1359 -1747 0
-1360 -1748 0
-1357 -3149 0
-1358 -3150 0
-1359 -3151 0
-1360 -3152 0
-1357 -5461 0
-1358 -5462 0
-1359 -5463 0
-1360 -5464 0
-1357 -2541 0
-1358 -2542 0
-1359 -2543 0
-1360 -2544 0
-1361 -4609 0
-1362 -4610 0
-1363 -4611 0
-1364 -4612 0
-1361 -4037 0
-1362 -4038 0
-1363 -4039 0
-1364 -4040 0
-1361 -1365 0
-1362 -1366 0
-1363 -1367 0
-1364 -1368 0
-1361 -3165 0
-1362 -3166 0
-1363 -3167 0
-1364 -3168 0
-1361 -3169 0
-1362 -3170 0
-1363 -3171 0
-1364 -3172 0
-1361 -3433 0
-1362 -3434 0
-1363 -3435 0
-1364 -3436 0
-1361 -3185 0
-1362 -3186 0
-1363 -3187 0
-1364 -3188 0
-1365 -4613 0
-1366 -4614 0
-1367 -4615 0
-1368 -4616 0
-1365 -1949 0
-1366 -1950 0
-1367 -1951 0
-1368 -1952 0
-1365 -3629 0
-1366 -3630 0
-1367 -3631 0
-1368 -3632 0
-1365 -2121 0
-1366 -2122 0
-1367 -2123 0
-1368 -2124 0
-1365 -4041 0
-1366 -4042 0
-1367 -4043 0
-1368 -4044 0
-1365 -3169 0
-1366 -3170 0
-1367 -3171 0
-1368 -3172 0
-1365 -3173 0
-1366 -3174 0
-1367 -3175 0
-1368 -3176 0
-1369 -2141 0
-1370 -2142 0
-1371 -2143 0
-1372 -2144 0
-1369 -3217 0
-1370 -3218 0
-1371 -3219 0
-1372 -3220 0
-1369 -3221 0
-1370 -3222 0
-1371 -3223 0
-1372 -3224 0
-1369 -4241 0
-1370 -4242 0
-1371 -4243 0
-1372 -4244 0
-1369 -1977 0
-1370 -1978 0
-1371 -1979 0
-1372 -1980 0
-1369 -4689 0
-1370 -4690 0
-1371 -4691 0
-1372 -4692 0
-1369 -4945 0
-1370 -4946 0
-1371 -4947 0
-1372 -4948 0
-1369 -1373 0
-1370 -1374 0
-1371 -1375 0
-1372 -1376 0
-1369 -4077 0
-1370 -4078 0
-1371 -4079 0
-1372 -4080 0
-1373 -3221 0
-1374 -3222 0
-1375 -3223 0
-1376 -3224 0
-1373 -3225 0
-1374 -3226 0
-1375 -3227 0
-1376 -3228 0
-1373 -4245 0
-1374 -4246 0
-1375 -4247 0
-1376 -4248 0
-1373 -1981 0
-1374 -1982 0
-1375 -1983 0
-1376 -1984 0
-1373 -6097 0
-1374 -6098 0
-1375 -6099 0
-1376 -6100 0
-1373 -4949 0
-1374 -4950 0
-1375 -4951 0
-1376 -4952 0
-1377 -2837 0
-1378 -2838 0
-1379 -2839 0
-1380 -2840 0
-1377 -1569 0
-1378 -1570 0
-1379 -1571 0
-1380 -1572 0
-1377 -2353 0
-1378 -2354 0
-1379 -2355 0
-1380 -2356 0
-1377 -3321 0
-1378 -3322 0
-1379 -3323 0
-1380 -3324 0
-1377 -3653 0
-1378 -3654 0
-1379 -3655 0
-1380 -3656 0
-1377 -1993 0
-1378 -1994 0
-1379 -1995 0
-1380 -1996 0
-1377 -5585 0
-1378 -5586 0
-1379 -5587 0
-1380 -5588 0
-1377 -1389 0
-1378 -1390 0
-1379 -1391 0
-1380 -1392 0
-1377 -2033 0
-1378 -2034 0
-1379 -2035 0
-1380 -2036 0
-1381 -3457 0
-1382 -3458 0
-1383 -3459 0
-1384 -3460 0
-1381 -2321 0
-1382 -2322 0
-1383 -2323 0
-1384 -2324 0
-1381 -2841 0
-1382 -2842 0
-1383 -2843 0
-1384 -2844 0
-1381 -4541 0
-1382 -4542 0
-1383 -4543 0
-1384 -4544 0
-1381 -2497 0
-1382 -2498 0
-1383 -2499 0
-1384 -2500 0
-1381 -3577 0
-1382 -3578 0
-1383 -3579 0
-1384 -3580 0
-1381 -1393 0
-1382 -1394 0
-1383 -1395 0
-1384 -1396 0
-1381 -2041 0
-1382 -2042 0
-1383 -2043 0
-1384 -2044 0
-1381 -3069 0
-1382 -3070 0
-1383 -3071 0
-1384 -3072 0
-1385 -4625 0
-1386 -4626 0
-1387 -4627 0
-1388 -4628 0
-1385 -3657 0
-1386 -3658 0
-1387 -3659 0
-1388 -3660 0
-1385 -2705 0
-1386 -2706 0
-1387 -2707 0
-1388 -2708 0
-1385 -2201 0
-1386 -2202 0
-1387 -2203 0
-1388 -2204 0
-1385 -1721 0
-1386 -1722 0
-1387 -1723 0
-1388 -1724 0
-1385 -4281 0
-1386 -4282 0
-1387 -4283 0
-1388 -4284 0
-1385 -3313 0
-1386 -3314 0
-1387 -3315 0
-1388 -3316 0
-1385 -2401 0
-1386 -2402 0
-1387 -2403 0
-1388 -2404 0
-1385 -2929 0
-1386 -2930 0
-1387 -2931 0
-1388 -2932 0
-1385 -1401 0
-1386 -1402 0
-1387 -1403 0
-1388 -1404 0
-1385 -1421 0
-1386 -1422 0
-1387 -1423 0
-1388 -1424 0
-1385 -3493 0
-1386 -3494 0
-1387 -3495 0
-1388 -3496 0
-1385 -5029 0
-1386 -5030 0
-1387 -5031 0
-1388 -5032 0
-1385 -5601 0
-1386 -5602 0
-1387 -5603 0
-1388 -5604 0
-1385 -2021 0
-1386 -2022 0
-1387 -2023 0
-1388 -2024 0
-1385 -2033 0
-1386 -2034 0
-1387 -2035 0
-1388 -2036 0
-1389 -2929 0
-1390 -2930 0
-1391 -2931 0
-1392 -2932 0
-1389 -4125 0
-1390 -4126 0
-1391 -4127 0
-1392 -4128 0
-1389 -2093 0
-1390 -2094 0
-1391 -2095 0
-1392 -2096 0
-1389 -1857 0
-1390 -1858 0
-1391 -1859 0
-1392 -1860 0
-1389 -1605 0
-1390 -1606 0
-1391 -1607 0
-1392 -1608 0
-1389 -2381 0
-1390 -2382 0
-1391 -2383 0
-1392 -2384 0
-1389 -3661 0
-1390 -3662 0
-1391 -3663 0
-1392 -3664 0
-1389 -2413 0
-1390 -2414 0
-1391 -2415 0
-1392 -2416 0
-1389 -2033 0
-1390 -2034 0
-1391 -2035 0
-1392 -2036 0
-1393 -1437 0
-1394 -1438 0
-1395 -1439 0
-1396 -1440 0
-1393 -2209 0
-1394 -2210 0
-1395 -2211 0
-1396 -2212 0
-1393 -2297 0
-1394 -2298 0
-1395 -2299 0
-1396 -2300 0
-1393 -3493 0
-1394 -3494 0
-1395 -3495 0
-1396 -3496 0
-1393 -4133 0
-1394 -4134 0
-1395 -4135 0
-1396 -4136 0
-1393 -2353 0
-1394 -2354 0
-1395 -2355 0
-1396 -2356 0
-1393 -4917 0
-1394 -4918 0
-1395 -4919 0
-1396 -4920 0
-1393 -1861 0
-1394 -1862 0
-1395 -1863 0
-1396 -1864 0
-1393 -2253 0
-1394 -2254 0
-1395 -2255 0
-1396 -2256 0
-1393 -2261 0
-1394 -2262 0
-1395 -2263 0
-1396 -2264 0
-1393 -2513 0
-1394 -2514 0
-1395 -2515 0
-1396 -2516 0
-1393 -3157 0
-1394 -3158 0
-1395 -3159 0
-1396 -3160 0
-1393 -4201 0
-1394 -4202 0
-1395 -4203 0
-1396 -4204 0
-1393 -2041 0
-1394 -2042 0
-1395 -2043 0
-1396 -2044 0
-1397 -1401 0
-1398 -1402 0
-1399 -1403 0
-1400 -1404 0
-1397 -2949 0
-1398 -2950 0
-1399 -2951 0
-1400 -2952 0
-1397 -3341 0
-1398 -3342 0
-1399 -3343 0
-1400 -3344 0
-1397 -4365 0
-1398 -4366 0
-1399 -4367 0
-1400 -4368 0
-1397 -5137 0
-1398 -5138 0
-1399 -5139 0
-1400 -5140 0
-1397 -4661 0
-1398 -4662 0
-1399 -4663 0
-1400 -4664 0
-1397 -3897 0
-1398 -3898 0
-1399 -3899 0
-1400 -3900 0
-1397 -2113 0
-1398 -2114 0
-1399 -2115 0
-1400 -2116 0
-1397 -2497 0
-1398 -2498 0
-1399 -2499 0
-1400 -2500 0
-1397 -3285 0
-1398 -3286 0
-1399 -3287 0
-1400 -3288 0
-1397 -2273 0
-1398 -2274 0
-1399 -2275 0
-1400 -2276 0
-1397 -2941 0
-1398 -2942 0
-1399 -2943 0
-1400 -2944 0
-1401 -3749 0
-1402 -3750 0
-1403 -3751 0
-1404 -3752 0
-1401 -3629 0
-1402 -3630 0
-1403 -3631 0
-1404 -3632 0
-1401 -2229 0
-1402 -2230 0
-1403 -2231 0
-1404 -2232 0
-1401 -4673 0
-1402 -4674 0
-1403 -4675 0
-1404 -4676 0
-1401 -1861 0
-1402 -1862 0
-1403 -1863 0
-1404 -1864 0
-1401 -3293 0
-1402 -3294 0
-1403 -3295 0
-1404 -3296 0
-1405 -4645 0
-1406 -4646 0
-1407 -4647 0
-1408 -4648 0
-1405 -4661 0
-1406 -4662 0
-1407 -4663 0
-1408 -4664 0
-1405 -2117 0
-1406 -2118 0
-1407 -2119 0
-1408 -2120 0
-1405 -4237 0
-1406 -4238 0
-1407 -4239 0
-1408 -4240 0
-1405 -2745 0
-1406 -2746 0
-1407 -2747 0
-1408 -2748 0
-1405 -4313 0
-1406 -4314 0
-1407 -4315 0
-1408 -4316 0
-1405 -2285 0
-1406 -2286 0
-1407 -2287 0
-1408 -2288 0
-1405 -4377 0
-1406 -4378 0
-1407 -4379 0
-1408 -4380 0
-1405 -5433 0
-1406 -5434 0
-1407 -5435 0
-1408 -5436 0
-1405 -1921 0
-1406 -1922 0
-1407 -1923 0
-1408 -1924 0
-1405 -1413 0
-1406 -1414 0
-1407 -1415 0
-1408 -1416 0
-1405 -2953 0
-1406 -2954 0
-1407 -2955 0
-1408 -2956 0
-1405 -1421 0
-1406 -1422 0
-1407 -1423 0
-1408 -1424 0
-1405 -5009 0
-1406 -5010 0
-1407 -5011 0
-1408 -5012 0
-1405 -1457 0
-1406 -1458 0
-1407 -1459 0
-1408 -1460 0
-1405 -2501 0
-1406 -2502 0
-1407 -2503 0
-1408 -2504 0
-1409 -3585 0
-1410 -3586 0
-1411 -3587 0
-1412 -3588 0
-1409 -2077 0
-1410 -2078 0
-1411 -2079 0
-1412 -2080 0
-1409 -5157 0
-1410 -5158 0
-1411 -5159 0
-1412 -5160 0
-1409 -4669 0
-1410 -4670 0
-1411 -4671 0
-1412 -4672 0
-1409 -3669 0
-1410 -3670 0
-1411 -3671 0
-1412 -3672 0
-1409 -4241 0
-1410 -4242 0
-1411 -4243 0
-1412 -4244 0
-1409 -3761 0
-1410 -3762 0
-1411 -3763 0
-1412 -3764 0
-1409 -4293 0
-1410 -4294 0
-1411 -4295 0
-1412 -4296 0
-1409 -3297 0
-1410 -3298 0
-1411 -3299 0
-1412 -3300 0
-1409 -2277 0
-1410 -2278 0
-1411 -2279 0
-1412 -2280 0
-1409 -5893 0
-1410 -5894 0
-1411 -5895 0
-1412 -5896 0
-1409 -4381 0
-1410 -4382 0
-1411 -4383 0
-1412 -4384 0
-1409 -3369 0
-1410 -3370 0
-1411 -3371 0
-1412 -3372 0
-1409 -1413 0
-1410 -1414 0
-1411 -1415 0
-1412 -1416 0
-1409 -1925 0
-1410 -1926 0
-1411 -1927 0
-1412 -1928 0
-1409 -3525 0
-1410 -3526 0
-1411 -3527 0
-1412 -3528 0
-1409 -2509 0
-1410 -2510 0
-1411 -2511 0
-1412 -2512 0
-1413 -4649 0
-1414 -4650 0
-1415 -4651 0
-1416 -4652 0
-1413 -4157 0
-1414 -4158 0
-1415 -4159 0
-1416 -4160 0
-1413 -4673 0
-1414 -4674 0
-1415 -4675 0
-1416 -4676 0
-1413 -4709 0
-1414 -4710 0
-1415 -4711 0
-1416 -4712 0
-1413 -4245 0
-1414 -4246 0
-1415 -4247 0
-1416 -4248 0
-1413 -3753 0
-1414 -3754 0
-1415 -3755 0
-1416 -3756 0
-1413 -3293 0
-1414 -3294 0
-1415 -3295 0
-1416 -3296 0
-1413 -2281 0
-1414 -2282 0
-1415 -2283 0
-1416 -2284 0
-1413 -3373 0
-1414 -3374 0
-1415 -3375 0
-1416 -3376 0
-1413 -3905 0
-1414 -3906 0
-1415 -3907 0
-1416 -3908 0
-1413 -1865 0
-1414 -1866 0
-1415 -1867 0
-1416 -1868 0
-1413 -2433 0
-1414 -2434 0
-1415 -2435 0
-1416 -2436 0
-1413 -1929 0
-1414 -1930 0
-1415 -1931 0
-1416 -1932 0
-1413 -2957 0
-1414 -2958 0
-1415 -2959 0
-1416 -2960 0
-1413 -1433 0
-1414 -1434 0
-1415 -1435 0
-1416 -1436 0
-1417 -2081 0
-1418 -2082 0
-1419 -2083 0
-1420 -2084 0
-1417 -4653 0
-1418 -4654 0
-1419 -4655 0
-1420 -4656 0
-1417 -4165 0
-1418 -4166 0
-1419 -4167 0
-1420 -4168 0
-1417 -2757 0
-1418 -2758 0
-1419 -2759 0
-1420 -2760 0
-1417 -4321 0
-1418 -4322 0
-1419 -4323 0
-1420 -4324 0
-1417 -3297 0
-1418 -3298 0
-1419 -3299 0
-1420 -3300 0
-1417 -1841 0
-1418 -1842 0
-1419 -1843 0
-1420 -1844 0
-1417 -1845 0
-1418 -1846 0
-1419 -1847 0
-1420 -1848 0
-1417 -5453 0
-1418 -5454 0
-1419 -5455 0
-1420 -5456 0
-1417 -1421 0
-1418 -1422 0
-1419 -1423 0
-1420 -1424 0
-1417 -2509 0
-1418 -2510 0
-1419 -2511 0
-1420 -2512 0
-1417 -5069 0
-1418 -5070 0
-1419 -5071 0
-1420 -5072 0
-1417 -2517 0
-1418 -2518 0
-1419 -2519 0
-1420 -2520 0
-1421 -2093 0
-1422 -2094 0
-1423 -2095 0
-1424 -2096 0
-1421 -4661 0
-1422 -4662 0
-1423 -4663 0
-1424 -4664 0
-1421 -5181 0
-1422 -5182 0
-1423 -5183 0
-1424 -5184 0
-1421 -4685 0
-1422 -4686 0
-1423 -4687 0
-1424 -4688 0
-1421 -2141 0
-1422 -2142 0
-1423 -2143 0
-1424 -2144 0
-1421 -1749 0
-1422 -1750 0
-1423 -1751 0
-1424 -1752 0
-1421 -4333 0
-1422 -4334 0
-1423 -4335 0
-1424 -4336 0
-1421 -2329 0
-1422 -2330 0
-1423 -2331 0
-1424 -2332 0
-1421 -3397 0
-1422 -3398 0
-1423 -3399 0
-1424 -3400 0
-1421 -1425 0
-1422 -1426 0
-1423 -1427 0
-1424 -1428 0
-1421 -1433 0
-1422 -1434 0
-1423 -1435 0
-1424 -1436 0
-1421 -2461 0
-1422 -2462 0
-1423 -2463 0
-1424 -2464 0
-1421 -5025 0
-1422 -5026 0
-1423 -5027 0
-1424 -5028 0
-1421 -5593 0
-1422 -5594 0
-1423 -5595 0
-1424 -5596 0
-1425 -2081 0
-1426 -2082 0
-1427 -2083 0
-1428 -2084 0
-1425 -1845 0
-1426 -1846 0
-1427 -1847 0
-1428 -1848 0
-1425 -4665 0
-1426 -4666 0
-1427 -4667 0
-1428 -4668 0
-1425 -2757 0
-1426 -2758 0
-1427 -2759 0
-1428 -2760 0
-1425 -4301 0
-1426 -4302 0
-1427 -4303 0
-1428 -4304 0
-1425 -2513 0
-1426 -2514 0
-1427 -2515 0
-1428 -2516 0
-1425 -4177 0
-1426 -4178 0
-1427 -4179 0
-1428 -4180 0
-1425 -5457 0
-1426 -5458 0
-1427 -5459 0
-1428 -5460 0
-1425 -4337 0
-1426 -4338 0
-1427 -4339 0
-1428 -4340 0
-1429 -2305 0
-1430 -2306 0
-1431 -2307 0
-1432 -2308 0
-1429 -3597 0
-1430 -3598 0
-1431 -3599 0
-1432 -3600 0
-1429 -1445 0
-1430 -1446 0
-1431 -1447 0
-1432 -1448 0
-1429 -2085 0
-1430 -2086 0
-1431 -2087 0
-1432 -2088 0
-1429 -5437 0
-1430 -5438 0
-1431 -5439 0
-1432 -5440 0
-1429 -3401 0
-1430 -3402 0
-1431 -3403 0
-1432 -3404 0
-1429 -5717 0
-1430 -5718 0
-1431 -5719 0
-1432 -5720 0
-1429 -3545 0
-1430 -3546 0
-1431 -3547 0
-1432 -3548 0
-1429 -2401 0
-1430 -2402 0
-1431 -2403 0
-1432 -2404 0
-1429 -3309 0
-1430 -3310 0
-1431 -3311 0
-1432 -3312 0
-1429 -3305 0
-1430 -3306 0
-1431 -3307 0
-1432 -3308 0
-1433 -2449 0
-1434 -2450 0
-1435 -2451 0
-1436 -2452 0
-1433 -1949 0
-1434 -1950 0
-1435 -1951 0
-1436 -1952 0
-1433 -4673 0
-1434 -4674 0
-1435 -4675 0
-1436 -4676 0
-1433 -2501 0
-1434 -2502 0
-1435 -2503 0
-1436 -2504 0
-1433 -4689 0
-1434 -4690 0
-1435 -4691 0
-1436 -4692 0
-1433 -5461 0
-1434 -5462 0
-1435 -5463 0
-1436 -5464 0
-1433 -4341 0
-1434 -4342 0
-1435 -4343 0
-1436 -4344 0
-1437 -2305 0
-1438 -2306 0
-1439 -2307 0
-1440 -2308 0
-1437 -5189 0
-1438 -5190 0
-1439 -5191 0
-1440 -5192 0
-1437 -2133 0
-1438 -2134 0
-1439 -2135 0
-1440 -2136 0
-1437 -3669 0
-1438 -3670 0
-1439 -3671 0
-1440 -3672 0
-1437 -3685 0
-1438 -3686 0
-1439 -3687 0
-1440 -3688 0
-1437 -2413 0
-1438 -2414 0
-1439 -2415 0
-1440 -2416 0
-1437 -3317 0
-1438 -3318 0
-1439 -3319 0
-1440 -3320 0
-1441 -2445 0
-1442 -2446 0
-1443 -2447 0
-1444 -2448 0
-1441 -2989 0
-1442 -2990 0
-1443 -2991 0
-1444 -2992 0
-1441 -1457 0
-1442 -1458 0
-1443 -1459 0
-1444 -1460 0
-1441 -2353 0
-1442 -2354 0
-1443 -2355 0
-1444 -2356 0
-1441 -2109 0
-1442 -2110 0
-1443 -2111 0
-1444 -2112 0
-1441 -4445 0
-1442 -4446 0
-1443 -4447 0
-1444 -4448 0
-1441 -2781 0
-1442 -2782 0
-1443 -2783 0
-1444 -2784 0
-1441 -1889 0
-1442 -1890 0
-1443 -1891 0
-1444 -1892 0
-1441 -4333 0
-1442 -4334 0
-1443 -4335 0
-1444 -4336 0
-1441 -3449 0
-1442 -3450 0
-1443 -3451 0
-1444 -3452 0
-1445 -5773 0
-1446 -5774 0
-1447 -5775 0
-1448 -5776 0
-1445 -2461 0
-1446 -2462 0
-1447 -2463 0
-1448 -2464 0
-1445 -3365 0
-1446 -3366 0
-1447 -3367 0
-1448 -3368 0
-1445 -1449 0
-1446 -1450 0
-1447 -1451 0
-1448 -1452 0
-1445 -3369 0
-1446 -3370 0
-1447 -3371 0
-1448 -3372 0
-1445 -3637 0
-1446 -3638 0
-1447 -3639 0
-1448 -3640 0
-1445 -3773 0
-1446 -3774 0
-1447 -3775 0
-1448 -3776 0
-1445 -2133 0
-1446 -2134 0
-1447 -2135 0
-1448 -2136 0
-1445 -3693 0
-1446 -3694 0
-1447 -3695 0
-1448 -3696 0
-1445 -5233 0
-1446 -5234 0
-1447 -5235 0
-1448 -5236 0
-1449 -4241 0
-1450 -4242 0
-1451 -4243 0
-1452 -4244 0
-1449 -5777 0
-1450 -5778 0
-1451 -5779 0
-1452 -5780 0
-1449 -4381 0
-1450 -4382 0
-1451 -4383 0
-1452 -4384 0
-1449 -3369 0
-1450 -3370 0
-1451 -3371 0
-1452 -3372 0
-1449 -3373 0
-1450 -3374 0
-1451 -3375 0
-1452 -3376 0
-1449 -2993 0
-1450 -2994 0
-1451 -2995 0
-1452 -2996 0
-1449 -3641 0
-1450 -3642 0
-1451 -3643 0
-1452 -3644 0
-1449 -3393 0
-1450 -3394 0
-1451 -3395 0
-1452 -3396 0
-1449 -3697 0
-1450 -3698 0
-1451 -3699 0
-1452 -3700 0
-1453 -5897 0
-1454 -5898 0
-1455 -5899 0
-1456 -5900 0
-1453 -2205 0
-1454 -2206 0
-1455 -2207 0
-1456 -2208 0
-1453 -1825 0
-1454 -1826 0
-1455 -1827 0
-1456 -1828 0
-1453 -1457 0
-1454 -1458 0
-1455 -1459 0
-1456 -1460 0
-1453 -2353 0
-1454 -2354 0
-1455 -2355 0
-1456 -2356 0
-1453 -2153 0
-1454 -2154 0
-1455 -2155 0
-1456 -2156 0
-1453 -2157 0
-1454 -2158 0
-1455 -2159 0
-1456 -2160 0
-1453 -3449 0
-1454 -3450 0
-1455 -3451 0
-1456 -3452 0
-1457 -1693 0
-1458 -1694 0
-1459 -1695 0
-1460 -1696 0
-1457 -4281 0
-1458 -4282 0
-1459 -4283 0
-1460 -4284 0
-1457 -2253 0
-1458 -2254 0
-1459 -2255 0
-1460 -2256 0
-1457 -4361 0
-1458 -4362 0
-1459 -4363 0
-1460 -4364 0
-1457 -2841 0
-1458 -2842 0
-1459 -2843 0
-1460 -2844 0
-1457 -2333 0
-1458 -2334 0
-1459 -2335 0
-1460 -2336 0
-1457 -2413 0
-1458 -2414 0
-1459 -2415 0
-1460 -2416 0
-1457 -3441 0
-1458 -3442 0
-1459 -3443 0
-1460 -3444 0
-1457 -1909 0
-1458 -1910 0
-1459 -1911 0
-1460 -1912 0
-1457 -3485 0
-1458 -3486 0
-1459 -3487 0
-1460 -3488 0
-1457 -2489 0
-1458 -2490 0
-1459 -2491 0
-1460 -2492 0
-1457 -2525 0
-1458 -2526 0
-1459 -2527 0
-1460 -2528 0
-1457 -3061 0
-1458 -3062 0
-1459 -3063 0
-1460 -3064 0
-1461 -5637 0
-1462 -5638 0
-1463 -5639 0
-1464 -5640 0
-1461 -3853 0
-1462 -3854 0
-1463 -3855 0
-1464 -3856 0
-1461 -3865 0
-1462 -3866 0
-1463 -3867 0
-1464 -3868 0
-1461 -2089 0
-1462 -2090 0
-1463 -2091 0
-1464 -2092 0
-1461 -3129 0
-1462 -3130 0
-1463 -3131 0
-1464 -3132 0
-1461 -3517 0
-1462 -3518 0
-1463 -3519 0
-1464 -3520 0
-1461 -3145 0
-1462 -3146 0
-1463 -3147 0
-1464 -3148 0
-1461 -2401 0
-1462 -2402 0
-1463 -2403 0
-1464 -2404 0
-1461 -2413 0
-1462 -2414 0
-1463 -2415 0
-1464 -2416 0
-1465 -2185 0
-1466 -2186 0
-1467 -2187 0
-1468 -2188 0
-1465 -2321 0
-1466 -2322 0
-1467 -2323 0
-1468 -2324 0
-1465 -1829 0
-1466 -1830 0
-1467 -1831 0
-1468 -1832 0
-1465 -2353 0
-1466 -2354 0
-1467 -2355 0
-1468 -2356 0
-1465 -1473 0
-1466 -1474 0
-1467 -1475 0
-1468 -1476 0
-1469 -3589 0
-1470 -3590 0
-1471 -3591 0
-1472 -3592 0
-1469 -5749 0
-1470 -5750 0
-1471 -5751 0
-1472 -5752 0
-1469 -2173 0
-1470 -2174 0
-1471 -2175 0
-1472 -2176 0
-1469 -2829 0
-1470 -2830 0
-1471 -2831 0
-1472 -2832 0
-1469 -2337 0
-1470 -2338 0
-1471 -2339 0
-1472 -2340 0
-1469 -2353 0
-1470 -2354 0
-1471 -2355 0
-1472 -2356 0
-1469 -2401 0
-1470 -2402 0
-1471 -2403 0
-1472 -2404 0
-1469 -1901 0
-1470 -1902 0
-1471 -1903 0
-1472 -1904 0
-1469 -3969 0
-1470 -3970 0
-1471 -3971 0
-1472 -3972 0
-1469 -2453 0
-1470 -2454 0
-1471 -2455 0
-1472 -2456 0
-1469 -4505 0
-1470 -4506 0
-1471 -4507 0
-1472 -4508 0
-1469 -1485 0
-1470 -1486 0
-1471 -1487 0
-1472 -1488 0
-1469 -4557 0
-1470 -4558 0
-1471 -4559 0
-1472 -4560 0
-1469 -2521 0
-1470 -2522 0
-1471 -2523 0
-1472 -2524 0
-1469 -3033 0
-1470 -3034 0
-1471 -3035 0
-1472 -3036 0
-1469 -6113 0
-1470 -6114 0
-1471 -6115 0
-1472 -6116 0
-1469 -3049 0
-1470 -3050 0
-1471 -3051 0
-1472 -3052 0
-1473 -2829 0
-1474 -2830 0
-1475 -2831 0
-1476 -2832 0
-1473 -2353 0
-1474 -2354 0
-1475 -2355 0
-1476 -2356 0
-1473 -1857 0
-1474 -1858 0
-1475 -1859 0
-1476 -1860 0
-1473 -1489 0
-1474 -1490 0
-1475 -1491 0
-1476 -1492 0
-1473 -3049 0
-1474 -3050 0
-1475 -3051 0
-1476 -3052 0
-1473 -2413 0
-1474 -2414 0
-1475 -2415 0
-1476 -2416 0
-1473 -1913 0
-1474 -1914 0
-1475 -1915 0
-1476 -1916 0
-1473 -2173 0
-1474 -2174 0
-1475 -2175 0
-1476 -2176 0
-1477 -3985 0
-1478 -3986 0
-1479 -3987 0
-1480 -3988 0
-1477 -2365 0
-1478 -2366 0
-1479 -2367 0
-1480 -2368 0
-1477 -2497 0
-1478 -2498 0
-1479 -2499 0
-1480 -2500 0
-1477 -4565 0
-1478 -4566 0
-1479 -4567 0
-1480 -4568 0
-1477 -4825 0
-1478 -4826 0
-1479 -4827 0
-1480 -4828 0
-1481 -3353 0
-1482 -3354 0
-1483 -3355 0
-1484 -3356 0
-1481 -3625 0
-1482 -3626 0
-1483 -3627 0
-1484 -3628 0
-1481 -3129 0
-1482 -3130 0
-1483 -3131 0
-1484 -3132 0
-1481 -2401 0
-1482 -2402 0
-1483 -2403 0
-1484 -2404 0
-1485 -2461 0
-1486 -2462 0
-1487 -2463 0
-1488 -2464 0
-1485 -3353 0
-1486 -3354 0
-1487 -3355 0
-1488 -3356 0
-1485 -3629 0
-1486 -3630 0
-1487 -3631 0
-1488 -3632 0
-1485 -3129 0
-1486 -3130 0
-1487 -3131 0
-1488 -3132 0
-1485 -3145 0
-1486 -3146 0
-1487 -3147 0
-1488 -3148 0
-1485 -5337 0
-1486 -5338 0
-1487 -5339 0
-1488 -5340 0
-1485 -2141 0
-1486 -2142 0
-1487 -2143 0
-1488 -2144 0
-1485 -2401 0
-1486 -2402 0
-1487 -2403 0
-1488 -2404 0
-1485 -6105 0
-1486 -6106 0
-1487 -6107 0
-1488 -6108 0
-1485 -2413 0
-1486 -2414 0
-1487 -2415 0
-1488 -2416 0
-1485 -2301 0
-1486 -2302 0
-1487 -2303 0
-1488 -2304 0
-1489 -2469 0
-1490 -2470 0
-1491 -2471 0
-1492 -2472 0
-1489 -3145 0
-1490 -3146 0
-1491 -3147 0
-1492 -3148 0
-1489 -2413 0
-1490 -2414 0
-1491 -2415 0
-1492 -2416 0
-1493 -1557 0
-1494 -1558 0
-1495 -1559 0
-1496 -1560 0
-1493 -2861 0
-1494 -2862 0
-1495 -2863 0
-1496 -2864 0
-1493 -4157 0
-1494 -4158 0
-1495 -4159 0
-1496 -4160 0
-1493 -2633 0
-1494 -2634 0
-1495 -2635 0
-1496 -2636 0
-1497 -5513 0
-1498 -5514 0
-1499 -5515 0
-1500 -5516 0
-1497 -3085 0
-1498 -3086 0
-1499 -3087 0
-1500 -3088 0
-1497 -1557 0
-1498 -1558 0
-1499 -1559 0
-1500 -1560 0
-1497 -4517 0
-1498 -4518 0
-1499 -4519 0
-1500 -4520 0
-1497 -2881 0
-1498 -2882 0
-1499 -2883 0
-1500 -2884 0
-1497 -5573 0
-1498 -5574 0
-1499 -5575 0
-1500 -5576 0
-1497 -2633 0
-1498 -2634 0
-1499 -2635 0
-1500 -2636 0
-1497 -2889 0
-1498 -2890 0
-1499 -2891 0
-1500 -2892 0
-1497 -3789 0
-1498 -3790 0
-1499 -3791 0
-1500 -3792 0
-1497 -1501 0
-1498 -1502 0
-1499 -1503 0
-1500 -1504 0
-1501 -5517 0
-1502 -5518 0
-1503 -5519 0
-1504 -5520 0
-1501 -3097 0
-1502 -3098 0
-1503 -3099 0
-1504 -3100 0
-1501 -1569 0
-1502 -1570 0
-1503 -1571 0
-1504 -1572 0
-1501 -4525 0
-1502 -4526 0
-1503 -4527 0
-1504 -4528 0
-1501 -2889 0
-1502 -2890 0
-1503 -2891 0
-1504 -2892 0
-1501 -2897 0
-1502 -2898 0
-1503 -2899 0
-1504 -2900 0
-1501 -3797 0
-1502 -3798 0
-1503 -3799 0
-1504 -3800 0
-1501 -4177 0
-1502 -4178 0
-1503 -4179 0
-1504 -4180 0
-1501 -2669 0
-1502 -2670 0
-1503 -2671 0
-1504 -2672 0
-1505 -3473 0
-1506 -3474 0
-1507 -3475 0
-1508 -3476 0
-1505 -1685 0
-1506 -1686 0
-1507 -1687 0
-1508 -1688 0
-1505 -1557 0
-1506 -1558 0
-1507 -1559 0
-1508 -1560 0
-1505 -2581 0
-1506 -2582 0
-1507 -2583 0
-1508 -2584 0
-1505 -3105 0
-1506 -3106 0
-1507 -3107 0
-1508 -3108 0
-1505 -1573 0
-1506 -1574 0
-1507 -1575 0
-1508 -1576 0
-1505 -2557 0
-1506 -2558 0
-1507 -2559 0
-1508 -2560 0
-1505 -3269 0
-1506 -3270 0
-1507 -3271 0
-1508 -3272 0
-1505 -2901 0
-1506 -2902 0
-1507 -2903 0
-1508 -2904 0
-1505 -2549 0
-1506 -2550 0
-1507 -2551 0
-1508 -2552 0
-1509 -3853 0
-1510 -3854 0
-1511 -3855 0
-1512 -3856 0
-1509 -3737 0
-1510 -3738 0
-1511 -3739 0
-1512 -3740 0
-1509 -5913 0
-1510 -5914 0
-1511 -5915 0
-1512 -5916 0
-1509 -1593 0
-1510 -1594 0
-1511 -1595 0
-1512 -1596 0
-1509 -1525 0
-1510 -1526 0
-1511 -1527 0
-1512 -1528 0
-1509 -4221 0
-1510 -4222 0
-1511 -4223 0
-1512 -4224 0
-1513 -1601 0
-1514 -1602 0
-1515 -1603 0
-1516 -1604 0
-1513 -1609 0
-1514 -1610 0
-1515 -1611 0
-1516 -1612 0
-1513 -2677 0
-1514 -2678 0
-1515 -2679 0
-1516 -2680 0
-1513 -2689 0
-1514 -2690 0
-1515 -2691 0
-1516 -2692 0
-1513 -3201 0
-1514 -3202 0
-1515 -3203 0
-1516 -3204 0
-1513 -4237 0
-1514 -4238 0
-1515 -4239 0
-1516 -4240 0
-1513 -3741 0
-1514 -3742 0
-1515 -3743 0
-1516 -3744 0
-1513 -4281 0
-1514 -4282 0
-1515 -4283 0
-1516 -4284 0
-1513 -3821 0
-1514 -3822 0
-1515 -3823 0
-1516 -3824 0
-1513 -3309 0
-1514 -3310 0
-1515 -3311 0
-1516 -3312 0
-1513 -4873 0
-1514 -4874 0
-1515 -4875 0
-1516 -4876 0
-1513 -3865 0
-1514 -3866 0
-1515 -3867 0
-1516 -3868 0
-1513 -4905 0
-1514 -4906 0
-1515 -4907 0
-1516 -4908 0
-1517 -2581 0
-1518 -2582 0
-1519 -2583 0
-1520 -2584 0
-1517 -2593 0
-1518 -2594 0
-1519 -2595 0
-1520 -2596 0
-1517 -5157 0
-1518 -5158 0
-1519 -5159 0
-1520 -5160 0
-1517 -3693 0
-1518 -3694 0
-1519 -3695 0
-1520 -3696 0
-1517 -2693 0
-1518 -2694 0
-1519 -2695 0
-1520 -2696 0
-1517 -3217 0
-1518 -3218 0
-1519 -3219 0
-1520 -3220 0
-1517 -2709 0
-1518 -2710 0
-1519 -2711 0
-1520 -2712 0
-1517 -4257 0
-1518 -4258 0
-1519 -4259 0
-1520 -4260 0
-1517 -5361 0
-1518 -5362 0
-1519 -5363 0
-1520 -5364 0
-1517 -3853 0
-1518 -3854 0
-1519 -3855 0
-1520 -3856 0
-1517 -5921 0
-1518 -5922 0
-1519 -5923 0
-1520 -5924 0
-1517 -5945 0
-1518 -5946 0
-1519 -5947 0
-1520 -5948 0
-1517 -2965 0
-1518 -2966 0
-1519 -2967 0
-1520 -2968 0
-1517 -1529 0
-1518 -1530 0
-1519 -1531 0
-1520 -1532 0
-1521 -3865 0
-1522 -3866 0
-1523 -3867 0
-1524 -3868 0
-1521 -2717 0
-1522 -2718 0
-1523 -2719 0
-1524 -2720 0
-1521 -2597 0
-1522 -2598 0
-1523 -2599 0
-1524 -2600 0
-1521 -3233 0
-1522 -3234 0
-1523 -3235 0
-1524 -3236 0
-1521 -4905 0
-1522 -4906 0
-1523 -4907 0
-1524 -4908 0
-1521 -5173 0
-1522 -5174 0
-1523 -5175 0
-1524 -5176 0
-1521 -3701 0
-1522 -3702 0
-1523 -3703 0
-1524 -3704 0
-1525 -4001 0
-1526 -4002 0
-1527 -4003 0
-1528 -4004 0
-1525 -3365 0
-1526 -3366 0
-1527 -3367 0
-1528 -3368 0
-1525 -3753 0
-1526 -3754 0
-1527 -3755 0
-1528 -3756 0
-1525 -3917 0
-1526 -3918 0
-1527 -3919 0
-1528 -3920 0
-1525 -1617 0
-1526 -1618 0
-1527 -1619 0
-1528 -1620 0
-1525 -4317 0
-1526 -4318 0
-1527 -4319 0
-1528 -4320 0
-1525 -3033 0
-1526 -3034 0
-1527 -3035 0
-1528 -3036 0
-1525 -4817 0
-1526 -4818 0
-1527 -4819 0
-1528 -4820 0
-1525 -4941 0
-1526 -4942 0
-1527 -4943 0
-1528 -4944 0
-1525 -4597 0
-1526 -4598 0
-1527 -4599 0
-1528 -4600 0
-1529 -4357 0
-1530 -4358 0
-1531 -4359 0
-1532 -4360 0
-1529 -4965 0
-1530 -4966 0
-1531 -4967 0
-1532 -4968 0
-1529 -5905 0
-1530 -5906 0
-1531 -5907 0
-1532 -5908 0
-1529 -2601 0
-1530 -2602 0
-1531 -2603 0
-1532 -2604 0
-1529 -2993 0
-1530 -2994 0
-1531 -2995 0
-1532 -2996 0
-1529 -4029 0
-1530 -4030 0
-1531 -4031 0
-1532 -4032 0
-1529 -2757 0
-1530 -2758 0
-1531 -2759 0
-1532 -2760 0
-1529 -3917 0
-1530 -3918 0
-1531 -3919 0
-1532 -3920 0
-1529 -4941 0
-1530 -4942 0
-1531 -4943 0
-1532 -4944 0
-1529 -3557 0
-1530 -3558 0
-1531 -3559 0
-1532 -3560 0
-1529 -1657 0
-1530 -1658 0
-1531 -1659 0
-1532 -1660 0
-1533 -1537 0
-1534 -1538 0
-1535 -1539 0
-1536 -1540 0
-1533 -1557 0
-1534 -1558 0
-1535 -1559 0
-1536 -1560 0
-1533 -2741 0
-1534 -2742 0
-1535 -2743 0
-1536 -2744 0
-1533 -2621 0
-1534 -2622 0
-1535 -2623 0
-1536 -2624 0
-1533 -3025 0
-1534 -3026 0
-1535 -3027 0
-1536 -3028 0
-1533 -3037 0
-1534 -3038 0
-1535 -3039 0
-1536 -3040 0
-1533 -4321 0
-1534 -4322 0
-1535 -4323 0
-1536 -4324 0
-1533 -3949 0
-1534 -3950 0
-1535 -3951 0
-1536 -3952 0
-1533 -2545 0
-1534 -2546 0
-1535 -2547 0
-1536 -2548 0
-1533 -3581 0
-1534 -3582 0
-1535 -3583 0
-1536 -3584 0
-1537 -2573 0
-1538 -2574 0
-1539 -2575 0
-1540 -2576 0
-1537 -3049 0
-1538 -3050 0
-1539 -3051 0
-1540 -3052 0
-1537 -2709 0
-1538 -2710 0
-1539 -2711 0
-1540 -2712 0
-1537 -1569 0
-1538 -1570 0
-1539 -1571 0
-1540 -1572 0
-1537 -3037 0
-1538 -3038 0
-1539 -3039 0
-1540 -3040 0
-1537 -2609 0
-1538 -2610 0
-1539 -2611 0
-1540 -2612 0
-1537 -3005 0
-1538 -3006 0
-1539 -3007 0
-1540 -3008 0
-1537 -2633 0
-1538 -2634 0
-1539 -2635 0
-1540 -2636 0
-1537 -1641 0
-1538 -1642 0
-1539 -1643 0
-1540 -1644 0
-1537 -4333 0
-1538 -4334 0
-1539 -4335 0
-1540 -4336 0
-1537 -2549 0
-1538 -2550 0
-1539 -2551 0
-1540 -2552 0
-1541 -1545 0
-1542 -1546 0
-1543 -1547 0
-1544 -1548 0
-1541 -3081 0
-1542 -3082 0
-1543 -3083 0
-1544 -3084 0
-1541 -1557 0
-1542 -1558 0
-1543 -1559 0
-1544 -1560 0
-1541 -3093 0
-1542 -3094 0
-1543 -3095 0
-1544 -3096 0
-1541 -2609 0
-1542 -2610 0
-1543 -2611 0
-1544 -2612 0
-1541 -2737 0
-1542 -2738 0
-1543 -2739 0
-1544 -2740 0
-1541 -4857 0
-1542 -4858 0
-1543 -4859 0
-1544 -4860 0
-1541 -4797 0
-1542 -4798 0
-1543 -4799 0
-1544 -4800 0
-1541 -3961 0
-1542 -3962 0
-1543 -3963 0
-1544 -3964 0
-1545 -1669 0
-1546 -1670 0
-1547 -1671 0
-1548 -1672 0
-1545 -3093 0
-1546 -3094 0
-1547 -3095 0
-1548 -3096 0
-1545 -1569 0
-1546 -1570 0
-1547 -1571 0
-1548 -1572 0
-1545 -3101 0
-1546 -3102 0
-1547 -3103 0
-1548 -3104 0
-1545 -4621 0
-1546 -4622 0
-1547 -4623 0
-1548 -4624 0
-1545 -5017 0
-1546 -5018 0
-1547 -5019 0
-1548 -5020 0
-1545 -2749 0
-1546 -2750 0
-1547 -2751 0
-1548 -2752 0
-1545 -3781 0
-1546 -3782 0
-1547 -3783 0
-1548 -3784 0
-1545 -4809 0
-1546 -4810 0
-1547 -4811 0
-1548 -4812 0
-1545 -1621 0
-1546 -1622 0
-1547 -1623 0
-1548 -1624 0
-1545 -3965 0
-1546 -3966 0
-1547 -3967 0
-1548 -3968 0
-1549 -4625 0
-1550 -4626 0
-1551 -4627 0
-1552 -4628 0
-1549 -1557 0
-1550 -1558 0
-1551 -1559 0
-1552 -1560 0
-1549 -3109 0
-1550 -3110 0
-1551 -3111 0
-1552 -3112 0
-1549 -3117 0
-1550 -3118 0
-1551 -3119 0
-1552 -3120 0
-1549 -5037 0
-1550 -5038 0
-1551 -5039 0
-1552 -5040 0
-1549 -2745 0
-1550 -2746 0
-1551 -2747 0
-1552 -2748 0
-1549 -5421 0
-1550 -5422 0
-1551 -5423 0
-1552 -5424 0
-1549 -2769 0
-1550 -2770 0
-1551 -2771 0
-1552 -2772 0
-1553 -1557 0
-1554 -1558 0
-1555 -1559 0
-1556 -1560 0
-1553 -1685 0
-1554 -1686 0
-1555 -1687 0
-1556 -1688 0
-1553 -1565 0
-1554 -1566 0
-1555 -1567 0
-1556 -1568 0
-1553 -2549 0
-1554 -2550 0
-1555 -2551 0
-1556 -2552 0
-1553 -2581 0
-1554 -2582 0
-1555 -2583 0
-1556 -2584 0
-1553 -3113 0
-1554 -3114 0
-1555 -3115 0
-1556 -3116 0
-1553 -5025 0
-1554 -5026 0
-1555 -5027 0
-1556 -5028 0
-1553 -3129 0
-1554 -3130 0
-1555 -3131 0
-1556 -3132 0
-1553 -4409 0
-1554 -4410 0
-1555 -4411 0
-1556 -4412 0
-1553 -3325 0
-1554 -3326 0
-1555 -3327 0
-1556 -3328 0
-1553 -3705 0
-1554 -3706 0
-1555 -3707 0
-1556 -3708 0
-1557 -2545 0
-1558 -2546 0
-1559 -2547 0
-1560 -2548 0
-1557 -2561 0
-1558 -2562 0
-1559 -2563 0
-1560 -2564 0
-1557 -1561 0
-1558 -1562 0
-1559 -1563 0
-1560 -1564 0
-1557 -2569 0
-1558 -2570 0
-1559 -2571 0
-1560 -2572 0
-1557 -1569 0
-1558 -1570 0
-1559 -1571 0
-1560 -1572 0
-1557 -2577 0
-1558 -2578 0
-1559 -2579 0
-1560 -2580 0
-1557 -2553 0
-1558 -2554 0
-1559 -2555 0
-1560 -2556 0
-1557 -1581 0
-1558 -1582 0
-1559 -1583 0
-1560 -1584 0
-1557 -2585 0
-1558 -2586 0
-1559 -2587 0
-1560 -2588 0
-1557 -2605 0
-1558 -2606 0
-1559 -2607 0
-1560 -2608 0
-1557 -2617 0
-1558 -2618 0
-1559 -2619 0
-1560 -2620 0
-1557 -1597 0
-1558 -1598 0
-1559 -1599 0
-1560 -1600 0
-1557 -3117 0
-1558 -3118 0
-1559 -3119 0
-1560 -3120 0
-1557 -3133 0
-1558 -3134 0
-1559 -3135 0
-1560 -3136 0
-1557 -2661 0
-1558 -2662 0
-1559 -2663 0
-1560 -2664 0
-1557 -3705 0
-1558 -3706 0
-1559 -3707 0
-1560 -3708 0
-1557 -3709 0
-1558 -3710 0
-1559 -3711 0
-1560 -3712 0
-1557 -5253 0
-1558 -5254 0
-1559 -5255 0
-1560 -5256 0
-1557 -3721 0
-1558 -3722 0
-1559 -3723 0
-1560 -3724 0
-1557 -2705 0
-1558 -2706 0
-1559 -2707 0
-1560 -2708 0
-1557 -1693 0
-1558 -1694 0
-1559 -1695 0
-1560 -1696 0
-1557 -2721 0
-1558 -2722 0
-1559 -2723 0
-1560 -2724 0
-1557 -1705 0
-1558 -1706 0
-1559 -1707 0
-1560 -1708 0
-1557 -2733 0
-1558 -2734 0
-1559 -2735 0
-1560 -2736 0
-1557 -4797 0
-1558 -4798 0
-1559 -4799 0
-1560 -4800 0
-1557 -2753 0
-1558 -2754 0
-1559 -2755 0
-1560 -2756 0
-1557 -3789 0
-1558 -3790 0
-1559 -3791 0
-1560 -3792 0
-1557 -4817 0
-1558 -4818 0
-1559 -4819 0
-1560 -4820 0
-1557 -2777 0
-1558 -2778 0
-1559 -2779 0
-1560 -2780 0
-1557 -4829 0
-1558 -4830 0
-1559 -4831 0
-1560 -4832 0
-1557 -2793 0
-1558 -2794 0
-1559 -2795 0
-1560 -2796 0
-1557 -4121 0
-1558 -4122 0
-1559 -4123 0
-1560 -4124 0
-1557 -2817 0
-1558 -2818 0
-1559 -2819 0
-1560 -2820 0
-1557 -4633 0
-1558 -4634 0
-1559 -4635 0
-1560 -4636 0
-1557 -5429 0
-1558 -5430 0
-1559 -5431 0
-1560 -5432 0
-1557 -4413 0
-1558 -4414 0
-1559 -4415 0
-1560 -4416 0
-1557 -3957 0
-1558 -3958 0
-1559 -3959 0
-1560 -3960 0
-1557 -3977 0
-1558 -3978 0
-1559 -3979 0
-1560 -3980 0
-1557 -3473 0
-1558 -3474 0
-1559 -3475 0
-1560 -3476 0
-1557 -4497 0
-1558 -4498 0
-1559 -4499 0
-1560 -4500 0
-1557 -2041 0
-1558 -2042 0
-1559 -2043 0
-1560 -2044 0
-1561 -2709 0
-1562 -2710 0
-1563 -2711 0
-1564 -2712 0
-1561 -1697 0
-1562 -1698 0
-1563 -1699 0
-1564 -1700 0
-1561 -1573 0
-1562 -1574 0
-1563 -1575 0
-1564 -1576 0
-1561 -3121 0
-1562 -3122 0
-1563 -3123 0
-1564 -3124 0
-1561 -3137 0
-1562 -3138 0
-1563 -3139 0
-1564 -3140 0
-1561 -5581 0
-1562 -5582 0
-1563 -5583 0
-1564 -5584 0
-1561 -2665 0
-1562 -2666 0
-1563 -2667 0
-1564 -2668 0
-1561 -4821 0
-1562 -4822 0
-1563 -4823 0
-1564 -4824 0
-1561 -3709 0
-1562 -3710 0
-1563 -3711 0
-1564 -3712 0
-1565 -1569 0
-1566 -1570 0
-1567 -1571 0
-1568 -1572 0
-1565 -3129 0
-1566 -3130 0
-1567 -3131 0
-1568 -3132 0
-1565 -1601 0
-1566 -1602 0
-1567 -1603 0
-1568 -1604 0
-1565 -2625 0
-1566 -2626 0
-1567 -2627 0
-1568 -2628 0
-1565 -3141 0
-1566 -3142 0
-1567 -3143 0
-1568 -3144 0
-1565 -3713 0
-1566 -3714 0
-1567 -3715 0
-1568 -3716 0
-1565 -1689 0
-1566 -1690 0
-1567 -1691 0
-1568 -1692 0
-1565 -4805 0
-1566 -4806 0
-1567 -4807 0
-1568 -4808 0
-1565 -3793 0
-1566 -3794 0
-1567 -3795 0
-1568 -3796 0
-1565 -3329 0
-1566 -3330 0
-1567 -3331 0
-1568 -3332 0
-1565 -5437 0
-1566 -5438 0
-1567 -5439 0
-1568 -5440 0
-1565 -3985 0
-1566 -3986 0
-1567 -3987 0
-1568 -3988 0
-1565 -3477 0
-1566 -3478 0
-1567 -3479 0
-1568 -3480 0
-1565 -5009 0
-1566 -5010 0
-1567 -5011 0
-1568 -5012 0
-1569 -2049 0
-1570 -2050 0
-1571 -2051 0
-1572 -2052 0
-1569 -2565 0
-1570 -2566 0
-1571 -2567 0
-1572 -2568 0
-1569 -2581 0
-1570 -2582 0
-1571 -2583 0
-1572 -2584 0
-1569 -2589 0
-1570 -2590 0
-1571 -2591 0
-1572 -2592 0
-1569 -1573 0
-1570 -1574 0
-1571 -1575 0
-1572 -1576 0
-1569 -1577 0
-1570 -1578 0
-1571 -1579 0
-1572 -1580 0
-1569 -3613 0
-1570 -3614 0
-1571 -3615 0
-1572 -3616 0
-1569 -1585 0
-1570 -1586 0
-1571 -1587 0
-1572 -1588 0
-1569 -2557 0
-1570 -2558 0
-1571 -2559 0
-1572 -2560 0
-1569 -3133 0
-1570 -3134 0
-1571 -3135 0
-1572 -3136 0
-1569 -1605 0
-1570 -1606 0
-1571 -1607 0
-1572 -1608 0
-1569 -2629 0
-1570 -2630 0
-1571 -2631 0
-1572 -2632 0
-1569 -3145 0
-1570 -3146 0
-1571 -3147 0
-1572 -3148 0
-1569 -2649 0
-1570 -2650 0
-1571 -2651 0
-1572 -2652 0
-1569 -2673 0
-1570 -2674 0
-1571 -2675 0
-1572 -2676 0
-1569 -3713 0
-1570 -3714 0
-1571 -3715 0
-1572 -3716 0
-1569 -3717 0
-1570 -3718 0
-1571 -3719 0
-1572 -3720 0
-1569 -3589 0
-1570 -3590 0
-1571 -3591 0
-1572 -3592 0
-1569 -3725 0
-1570 -3726 0
-1571 -3727 0
-1572 -3728 0
-1569 -1685 0
-1570 -1686 0
-1571 -1687 0
-1572 -1688 0
-1569 -2713 0
-1570 -2714 0
-1571 -2715 0
-1572 -2716 0
-1569 -1701 0
-1570 -1702 0
-1571 -1703 0
-1572 -1704 0
-1569 -2729 0
-1570 -2730 0
-1571 -2731 0
-1572 -2732 0
-1569 -1709 0
-1570 -1710 0
-1571 -1711 0
-1572 -1712 0
-1569 -2737 0
-1570 -2738 0
-1571 -2739 0
-1572 -2740 0
-1569 -2757 0
-1570 -2758 0
-1571 -2759 0
-1572 -2760 0
-1569 -4809 0
-1570 -4810 0
-1571 -4811 0
-1572 -4812 0
-1569 -2781 0
-1570 -2782 0
-1571 -2783 0
-1572 -2784 0
-1569 -3797 0
-1570 -3798 0
-1571 -3799 0
-1572 -3800 0
-1569 -4825 0
-1570 -4826 0
-1571 -4827 0
-1572 -4828 0
-1569 -4833 0
-1570 -4834 0
-1571 -4835 0
-1572 -4836 0
-1569 -2825 0
-1570 -2826 0
-1571 -2827 0
-1572 -2828 0
-1569 -3333 0
-1570 -3334 0
-1571 -3335 0
-1572 -3336 0
-1569 -3961 0
-1570 -3962 0
-1571 -3963 0
-1572 -3964 0
-1569 -3989 0
-1570 -3990 0
-1571 -3991 0
-1572 -3992 0
-1569 -3481 0
-1570 -3482 0
-1571 -3483 0
-1572 -3484 0
-1569 -2549 0
-1570 -2550 0
-1571 -2551 0
-1572 -2552 0
-1569 -3065 0
-1570 -3066 0
-1571 -3067 0
-1572 -3068 0
-1573 -3717 0
-1574 -3718 0
-1575 -3719 0
-1576 -3720 0
-1573 -3337 0
-1574 -3338 0
-1575 -3339 0
-1576 -3340 0
-1573 -5013 0
-1574 -5014 0
-1575 -5015 0
-1576 -5016 0
-1573 -2553 0
-1574 -2554 0
-1575 -2555 0
-1576 -2556 0
-1573 -2785 0
-1574 -2786 0
-1575 -2787 0
-1576 -2788 0
-1573 -3137 0
-1574 -3138 0
-1575 -3139 0
-1576 -3140 0
-1573 -4417 0
-1574 -4418 0
-1575 -4419 0
-1576 -4420 0
-1573 -2761 0
-1574 -2762 0
-1575 -2763 0
-1576 -2764 0
-1573 -3149 0
-1574 -3150 0
-1575 -3151 0
-1576 -3152 0
-1573 -2797 0
-1574 -2798 0
-1575 -2799 0
-1576 -2800 0
-1577 -3601 0
-1578 -3602 0
-1579 -3603 0
-1580 -3604 0
-1577 -1689 0
-1578 -1690 0
-1579 -1691 0
-1580 -1692 0
-1577 -3485 0
-1578 -3486 0
-1579 -3487 0
-1580 -3488 0
-1577 -4125 0
-1578 -4126 0
-1579 -4127 0
-1580 -4128 0
-1577 -5017 0
-1578 -5018 0
-1579 -5019 0
-1580 -5020 0
-1577 -1713 0
-1578 -1714 0
-1579 -1715 0
-1580 -1716 0
-1577 -3145 0
-1578 -3146 0
-1579 -3147 0
-1580 -3148 0
-1577 -4813 0
-1578 -4814 0
-1579 -4815 0
-1580 -4816 0
-1577 -3153 0
-1578 -3154 0
-1579 -3155 0
-1580 -3156 0
-1577 -3965 0
-1578 -3966 0
-1579 -3967 0
-1580 -3968 0
-1581 -3609 0
-1582 -3610 0
-1583 -3611 0
-1584 -3612 0
-1581 -3621 0
-1582 -3622 0
-1583 -3623 0
-1584 -3624 0
-1581 -1585 0
-1582 -1586 0
-1583 -1587 0
-1584 -1588 0
-1581 -3161 0
-1582 -3162 0
-1583 -3163 0
-1584 -3164 0
-1581 -3169 0
-1582 -3170 0
-1583 -3171 0
-1584 -3172 0
-1581 -2677 0
-1582 -2678 0
-1583 -2679 0
-1584 -2680 0
-1581 -2725 0
-1582 -2726 0
-1583 -2727 0
-1584 -2728 0
-1581 -4817 0
-1582 -4818 0
-1583 -4819 0
-1584 -4820 0
-1581 -2837 0
-1582 -2838 0
-1583 -2839 0
-1584 -2840 0
-1581 -4433 0
-1582 -4434 0
-1583 -4435 0
-1584 -4436 0
-1581 -3993 0
-1582 -3994 0
-1583 -3995 0
-1584 -3996 0
-1581 -4501 0
-1582 -4502 0
-1583 -4503 0
-1584 -4504 0
-1581 -5037 0
-1582 -5038 0
-1583 -5039 0
-1584 -5040 0
-1585 -2573 0
-1586 -2574 0
-1587 -2575 0
-1588 -2576 0
-1585 -3977 0
-1586 -3978 0
-1587 -3979 0
-1588 -3980 0
-1585 -2721 0
-1586 -2722 0
-1587 -2723 0
-1588 -2724 0
-1585 -3373 0
-1586 -3374 0
-1587 -3375 0
-1588 -3376 0
-1585 -4825 0
-1586 -4826 0
-1587 -4827 0
-1588 -4828 0
-1585 -4445 0
-1586 -4446 0
-1587 -4447 0
-1588 -4448 0
-1585 -3169 0
-1586 -3170 0
-1587 -3171 0
-1588 -3172 0
-1585 -3181 0
-1586 -3182 0
-1587 -3183 0
-1588 -3184 0
-1589 -2589 0
-1590 -2590 0
-1591 -2591 0
-1592 -2592 0
-1589 -3997 0
-1590 -3998 0
-1591 -3999 0
-1592 -4000 0
-1589 -5037 0
-1590 -5038 0
-1591 -5039 0
-1592 -5040 0
-1589 -2749 0
-1590 -2750 0
-1591 -2751 0
-1592 -2752 0
-1589 -1733 0
-1590 -1734 0
-1591 -1735 0
-1592 -1736 0
-1589 -4157 0
-1590 -4158 0
-1591 -4159 0
-1592 -4160 0
-1589 -3165 0
-1590 -3166 0
-1591 -3167 0
-1592 -3168 0
-1589 -4473 0
-1590 -4474 0
-1591 -4475 0
-1592 -4476 0
-1593 -3853 0
-1594 -3854 0
-1595 -3855 0
-1596 -3856 0
-1593 -5285 0
-1594 -5286 0
-1595 -5287 0
-1596 -5288 0
-1593 -4033 0
-1594 -4034 0
-1595 -4035 0
-1596 -4036 0
-1593 -1617 0
-1594 -1618 0
-1595 -1619 0
-1596 -1620 0
-1593 -5465 0
-1594 -5466 0
-1595 -5467 0
-1596 -5468 0
-1597 -2561 0
-1598 -2562 0
-1599 -2563 0
-1600 -2564 0
-1597 -2609 0
-1598 -2610 0
-1599 -2611 0
-1600 -2612 0
-1597 -4673 0
-1598 -4674 0
-1599 -4675 0
-1600 -4676 0
-1597 -1605 0
-1598 -1606 0
-1599 -1607 0
-1600 -1608 0
-1597 -1653 0
-1598 -1654 0
-1599 -1655 0
-1600 -1656 0
-1597 -3209 0
-1598 -3210 0
-1599 -3211 0
-1600 -3212 0
-1597 -3221 0
-1598 -3222 0
-1599 -3223 0
-1600 -3224 0
-1597 -1733 0
-1598 -1734 0
-1599 -1735 0
-1600 -1736 0
-1597 -2805 0
-1598 -2806 0
-1599 -2807 0
-1600 -2808 0
-1597 -4905 0
-1598 -4906 0
-1599 -4907 0
-1600 -4908 0
-1597 -2889 0
-1598 -2890 0
-1599 -2891 0
-1600 -2892 0
-1597 -3413 0
-1598 -3414 0
-1599 -3415 0
-1600 -3416 0
-1597 -4517 0
-1598 -4518 0
-1599 -4519 0
-1600 -4520 0
-1597 -4009 0
-1598 -4010 0
-1599 -4011 0
-1600 -4012 0
-1597 -3517 0
-1598 -3518 0
-1599 -3519 0
-1600 -3520 0
-1597 -4041 0
-1598 -4042 0
-1599 -4043 0
-1600 -4044 0
-1597 -5077 0
-1598 -5078 0
-1599 -5079 0
-1600 -5080 0
-1597 -6109 0
-1598 -6110 0
-1599 -6111 0
-1600 -6112 0
-1601 -1605 0
-1602 -1606 0
-1603 -1607 0
-1604 -1608 0
-1601 -5725 0
-1602 -5726 0
-1603 -5727 0
-1604 -5728 0
-1601 -2665 0
-1602 -2666 0
-1603 -2667 0
-1604 -2668 0
-1601 -3217 0
-1602 -3218 0
-1603 -3219 0
-1604 -3220 0
-1601 -5297 0
-1602 -5298 0
-1603 -5299 0
-1604 -5300 0
-1601 -2753 0
-1602 -2754 0
-1603 -2755 0
-1604 -2756 0
-1601 -2765 0
-1602 -2766 0
-1603 -2767 0
-1604 -2768 0
-1601 -2801 0
-1602 -2802 0
-1603 -2803 0
-1604 -2804 0
-1601 -3865 0
-1602 -3866 0
-1603 -3867 0
-1604 -3868 0
-1601 -3421 0
-1602 -3422 0
-1603 -3423 0
-1604 -3424 0
-1601 -4481 0
-1602 -4482 0
-1603 -4483 0
-1604 -4484 0
-1601 -5045 0
-1602 -5046 0
-1603 -5047 0
-1604 -5048 0
-1601 -5561 0
-1602 -5562 0
-1603 -5563 0
-1604 -5564 0
-1601 -4045 0
-1602 -4046 0
-1603 -4047 0
-1604 -4048 0
-1601 -5085 0
-1602 -5086 0
-1603 -5087 0
-1604 -5088 0
-1605 -2565 0
-1606 -2566 0
-1607 -2567 0
-1608 -2568 0
-1605 -3629 0
-1606 -3630 0
-1607 -3631 0
-1608 -3632 0
-1605 -3649 0
-1606 -3650 0
-1607 -3651 0
-1608 -3652 0
-1605 -4681 0
-1606 -4682 0
-1607 -4683 0
-1608 -4684 0
-1605 -4177 0
-1606 -4178 0
-1607 -4179 0
-1608 -4180 0
-1605 -1621 0
-1606 -1622 0
-1607 -1623 0
-1608 -1624 0
-1605 -2669 0
-1606 -2670 0
-1607 -2671 0
-1608 -2672 0
-1605 -3221 0
-1606 -3222 0
-1607 -3223 0
-1608 -3224 0
-1605 -3233 0
-1606 -3234 0
-1607 -3235 0
-1608 -3236 0
-1605 -1741 0
-1606 -1742 0
-1607 -1743 0
-1608 -1744 0
-1605 -4845 0
-1606 -4846 0
-1607 -4847 0
-1608 -4848 0
-1605 -3869 0
-1606 -3870 0
-1607 -3871 0
-1608 -3872 0
-1605 -2897 0
-1606 -2898 0
-1607 -2899 0
-1608 -2900 0
-1605 -4013 0
-1606 -4014 0
-1607 -4015 0
-1608 -4016 0
-1605 -4525 0
-1606 -4526 0
-1607 -4527 0
-1608 -4528 0
-1609 -5777 0
-1610 -5778 0
-1611 -5779 0
-1612 -5780 0
-1609 -3237 0
-1610 -3238 0
-1611 -3239 0
-1612 -3240 0
-1609 -4685 0
-1610 -4686 0
-1611 -4687 0
-1612 -4688 0
-1609 -2777 0
-1610 -2778 0
-1611 -2779 0
-1612 -2780 0
-1609 -4057 0
-1610 -4058 0
-1611 -4059 0
-1612 -4060 0
-1609 -2917 0
-1610 -2918 0
-1611 -2919 0
-1612 -2920 0
-1609 -2801 0
-1610 -2802 0
-1611 -2803 0
-1612 -2804 0
-1609 -1781 0
-1610 -1782 0
-1611 -1783 0
-1612 -1784 0
-1613 -1697 0
-1614 -1698 0
-1615 -1699 0
-1616 -1700 0
-1613 -1825 0
-1614 -1826 0
-1615 -1827 0
-1616 -1828 0
-1613 -3897 0
-1614 -3898 0
-1615 -3899 0
-1616 -3900 0
-1613 -4933 0
-1614 -4934 0
-1615 -4935 0
-1616 -4936 0
-1613 -1749 0
-1614 -1750 0
-1615 -1751 0
-1616 -1752 0
-1613 -5081 0
-1614 -5082 0
-1615 -5083 0
-1616 -5084 0
-1613 -5101 0
-1614 -5102 0
-1615 -5103 0
-1616 -5104 0
-1617 -5913 0
-1618 -5914 0
-1619 -5915 0
-1620 -5916 0
-1617 -6061 0
-1618 -6062 0
-1619 -6063 0
-1620 -6064 0
-1617 -3917 0
-1618 -3918 0
-1619 -3919 0
-1620 -3920 0
-1617 -4945 0
-1618 -4946 0
-1619 -4947 0
-1620 -4948 0
-1617 -4089 0
-1618 -4090 0
-1619 -4091 0
-1620 -4092 0
-1617 -4221 0
-1618 -4222 0
-1619 -4223 0
-1620 -4224 0
-1621 -2725 0
-1622 -2726 0
-1623 -2727 0
-1624 -2728 0
-1621 -3753 0
-1622 -3754 0
-1623 -3755 0
-1624 -3756 0
-1621 -4273 0
-1622 -4274 0
-1623 -4275 0
-1624 -4276 0
-1621 -2997 0
-1622 -2998 0
-1623 -2999 0
-1624 -3000 0
-1621 -3665 0
-1622 -3666 0
-1623 -3667 0
-1624 -3668 0
-1621 -4817 0
-1622 -4818 0
-1623 -4819 0
-1624 -4820 0
-1621 -5333 0
-1622 -5334 0
-1623 -5335 0
-1624 -5336 0
-1625 -4113 0
-1626 -4114 0
-1627 -4115 0
-1628 -4116 0
-1625 -4881 0
-1626 -4882 0
-1627 -4883 0
-1628 -4884 0
-1625 -1825 0
-1626 -1826 0
-1627 -1827 0
-1628 -1828 0
-1625 -2865 0
-1626 -2866 0
-1627 -2867 0
-1628 -2868 0
-1625 -1629 0
-1626 -1630 0
-1627 -1631 0
-1628 -1632 0
-1629 -3733 0
-1630 -3734 0
-1631 -3735 0
-1632 -3736 0
-1629 -4885 0
-1630 -4886 0
-1631 -4887 0
-1632 -4888 0
-1629 -1829 0
-1630 -1830 0
-1631 -1831 0
-1632 -1832 0
-1629 -2737 0
-1630 -2738 0
-1631 -2739 0
-1632 -2740 0
-1629 -3285 0
-1630 -3286 0
-1631 -3287 0
-1632 -3288 0
-1629 -3561 0
-1630 -3562 0
-1631 -3563 0
-1632 -3564 0
-1633 -2821 0
-1634 -2822 0
-1635 -2823 0
-1636 -2824 0
-1633 -5129 0
-1634 -5130 0
-1635 -5131 0
-1636 -5132 0
-1633 -1809 0
-1634 -1810 0
-1635 -1811 0
-1636 -1812 0
-1633 -2837 0
-1634 -2838 0
-1635 -2839 0
-1636 -2840 0
-1633 -4881 0
-1634 -4882 0
-1635 -4883 0
-1636 -4884 0
-1633 -1825 0
-1634 -1826 0
-1635 -1827 0
-1636 -1828 0
-1633 -2865 0
-1634 -2866 0
-1635 -2867 0
-1636 -2868 0
-1633 -2629 0
-1634 -2630 0
-1635 -2631 0
-1636 -2632 0
-1633 -2885 0
-1634 -2886 0
-1635 -2887 0
-1636 -2888 0
-1633 -3657 0
-1634 -3658 0
-1635 -3659 0
-1636 -3660 0
-1633 -1637 0
-1634 -1638 0
-1635 -1639 0
-1636 -1640 0
-1633 -1645 0
-1634 -1646 0
-1635 -1647 0
-1636 -1648 0
-1633 -2545 0
-1634 -2546 0
-1635 -2547 0
-1636 -2548 0
-1633 -4861 0
-1634 -4862 0
-1635 -4863 0
-1636 -4864 0
-1637 -4865 0
-1638 -4866 0
-1639 -4867 0
-1640 -4868 0
-1637 -1673 0
-1638 -1674 0
-1639 -1675 0
-1640 -1676 0
-1637 -4885 0
-1638 -4886 0
-1639 -4887 0
-1640 -4888 0
-1637 -3741 0
-1638 -3742 0
-1639 -3743 0
-1640 -3744 0
-1637 -4125 0
-1638 -4126 0
-1639 -4127 0
-1640 -4128 0
-1637 -1829 0
-1638 -1830 0
-1639 -1831 0
-1640 -1832 0
-1637 -3293 0
-1638 -3294 0
-1639 -3295 0
-1640 -3296 0
-1637 -2617 0
-1638 -2618 0
-1639 -2619 0
-1640 -2620 0
-1637 -2889 0
-1638 -2890 0
-1639 -2891 0
-1640 -2892 0
-1637 -3565 0
-1638 -3566 0
-1639 -3567 0
-1640 -3568 0
-1637 -1649 0
-1638 -1650 0
-1639 -1651 0
-1640 -1652 0
-1637 -2173 0
-1638 -2174 0
-1639 -2175 0
-1640 -2176 0
-1641 -2577 0
-1642 -2578 0
-1643 -2579 0
-1644 -2580 0
-1641 -1685 0
-1642 -1686 0
-1643 -1687 0
-1644 -1688 0
-1641 -5137 0
-1642 -5138 0
-1643 -5139 0
-1644 -5140 0
-1641 -2865 0
-1642 -2866 0
-1643 -2867 0
-1644 -2868 0
-1641 -2885 0
-1642 -2886 0
-1643 -2887 0
-1644 -2888 0
-1641 -3297 0
-1642 -3298 0
-1643 -3299 0
-1644 -3300 0
-1645 -5145 0
-1646 -5146 0
-1647 -5147 0
-1648 -5148 0
-1645 -4145 0
-1646 -4146 0
-1647 -4147 0
-1648 -4148 0
-1645 -1649 0
-1646 -1650 0
-1647 -1651 0
-1648 -1652 0
-1645 -1653 0
-1646 -1654 0
-1647 -1655 0
-1648 -1656 0
-1645 -2681 0
-1646 -2682 0
-1647 -2683 0
-1648 -2684 0
-1645 -1661 0
-1646 -1662 0
-1647 -1663 0
-1648 -1664 0
-1645 -2685 0
-1646 -2686 0
-1647 -2687 0
-1648 -2688 0
-1645 -2701 0
-1646 -2702 0
-1647 -2703 0
-1648 -2704 0
-1645 -1697 0
-1646 -1698 0
-1647 -1699 0
-1648 -1700 0
-1645 -4277 0
-1646 -4278 0
-1647 -4279 0
-1648 -4280 0
-1645 -2749 0
-1646 -2750 0
-1647 -2751 0
-1648 -2752 0
-1645 -3829 0
-1646 -3830 0
-1647 -3831 0
-1648 -3832 0
-1645 -4881 0
-1646 -4882 0
-1647 -4883 0
-1648 -4884 0
-1645 -2841 0
-1646 -2842 0
-1647 -2843 0
-1648 -2844 0
-1645 -2849 0
-1646 -2850 0
-1647 -2851 0
-1648 -2852 0
-1645 -4901 0
-1646 -4902 0
-1647 -4903 0
-1648 -4904 0
-1645 -1845 0
-1646 -1846 0
-1647 -1847 0
-1648 -1848 0
-1645 -1853 0
-1646 -1854 0
-1647 -1855 0
-1648 -1856 0
-1645 -2877 0
-1646 -2878 0
-1647 -2879 0
-1648 -2880 0
-1645 -2901 0
-1646 -2902 0
-1647 -2903 0
-1648 -2904 0
-1645 -5985 0
-1646 -5986 0
-1647 -5987 0
-1648 -5988 0
-1645 -2925 0
-1646 -2926 0
-1647 -2927 0
-1648 -2928 0
-1645 -3953 0
-1646 -3954 0
-1647 -3955 0
-1648 -3956 0
-1645 -2945 0
-1646 -2946 0
-1647 -2947 0
-1648 -2948 0
-1645 -2953 0
-1646 -2954 0
-1647 -2955 0
-1648 -2956 0
-1645 -3501 0
-1646 -3502 0
-1647 -3503 0
-1648 -3504 0
-1645 -4557 0
-1646 -4558 0
-1647 -4559 0
-1648 -4560 0
-1645 -6105 0
-1646 -6106 0
-1647 -6107 0
-1648 -6108 0
-1645 -5621 0
-1646 -5622 0
-1647 -5623 0
-1648 -5624 0
-1649 -4709 0
-1650 -4710 0
-1651 -4711 0
-1652 -4712 0
-1649 -2929 0
-1650 -2930 0
-1651 -2931 0
-1652 -2932 0
-1649 -4885 0
-1650 -4886 0
-1651 -4887 0
-1652 -4888 0
-1649 -2845 0
-1650 -2846 0
-1651 -2847 0
-1652 -2848 0
-1649 -2721 0
-1650 -2722 0
-1651 -2723 0
-1652 -2724 0
-1649 -4905 0
-1650 -4906 0
-1651 -4907 0
-1652 -4908 0
-1649 -1849 0
-1650 -1850 0
-1651 -1851 0
-1652 -1852 0
-1649 -5949 0
-1650 -5950 0
-1651 -5951 0
-1652 -5952 0
-1649 -3273 0
-1650 -3274 0
-1651 -3275 0
-1652 -3276 0
-1649 -2905 0
-1650 -2906 0
-1651 -2907 0
-1652 -2908 0
-1653 -1713 0
-1654 -1714 0
-1655 -1715 0
-1656 -1716 0
-1653 -2757 0
-1654 -2758 0
-1655 -2759 0
-1656 -2760 0
-1653 -3313 0
-1654 -3314 0
-1655 -3315 0
-1656 -3316 0
-1653 -4901 0
-1654 -4902 0
-1655 -4903 0
-1656 -4904 0
-1653 -2913 0
-1654 -2914 0
-1655 -2915 0
-1656 -2916 0
-1653 -3509 0
-1654 -3510 0
-1655 -3511 0
-1656 -3512 0
-1653 -6113 0
-1654 -6114 0
-1655 -6115 0
-1656 -6116 0
-1653 -3577 0
-1654 -3578 0
-1655 -3579 0
-1656 -3580 0
-1657 -2693 0
-1658 -2694 0
-1659 -2695 0
-1660 -2696 0
-1657 -2581 0
-1658 -2582 0
-1659 -2583 0
-1660 -2584 0
-1657 -2709 0
-1658 -2710 0
-1659 -2711 0
-1660 -2712 0
-1657 -3865 0
-1658 -3866 0
-1659 -3867 0
-1660 -3868 0
-1657 -5921 0
-1658 -5922 0
-1659 -5923 0
-1660 -5924 0
-1657 -5157 0
-1658 -5158 0
-1659 -5159 0
-1660 -5160 0
-1657 -5561 0
-1658 -5562 0
-1659 -5563 0
-1660 -5564 0
-1657 -1857 0
-1658 -1858 0
-1659 -1859 0
-1660 -1860 0
-1657 -2765 0
-1658 -2766 0
-1659 -2767 0
-1660 -2768 0
-1657 -5361 0
-1658 -5362 0
-1659 -5363 0
-1660 -5364 0
-1661 -2705 0
-1662 -2706 0
-1663 -2707 0
-1664 -2708 0
-1661 -4009 0
-1662 -4010 0
-1663 -4011 0
-1664 -4012 0
-1661 -3033 0
-1662 -3034 0
-1663 -3035 0
-1664 -3036 0
-1661 -1893 0
-1662 -1894 0
-1663 -1895 0
-1664 -1896 0
-1665 -5137 0
-1666 -5138 0
-1667 -5139 0
-1668 -5140 0
-1665 -2709 0
-1666 -2710 0
-1667 -2711 0
-1668 -2712 0
-1665 -1893 0
-1666 -1894 0
-1667 -1895 0
-1668 -1896 0
-1665 -6069 0
-1666 -6070 0
-1667 -6071 0
-1668 -6072 0
-1665 -4157 0
-1666 -4158 0
-1667 -4159 0
-1668 -4160 0
-1665 -2889 0
-1666 -2890 0
-1667 -2891 0
-1668 -2892 0
-1665 -1761 0
-1666 -1762 0
-1667 -1763 0
-1668 -1764 0
-1665 -1781 0
-1666 -1782 0
-1667 -1783 0
-1668 -1784 0
-1669 -2237 0
-1670 -2238 0
-1671 -2239 0
-1672 -2240 0
-1669 -4925 0
-1670 -4926 0
-1671 -4927 0
-1672 -4928 0
-1669 -2889 0
-1670 -2890 0
-1671 -2891 0
-1672 -2892 0
-1669 -2773 0
-1670 -2774 0
-1671 -2775 0
-1672 -2776 0
-1669 -4181 0
-1670 -4182 0
-1671 -4183 0
-1672 -4184 0
-1673 -1797 0
-1674 -1798 0
-1675 -1799 0
-1676 -1800 0
-1673 -2949 0
-1674 -2950 0
-1675 -2951 0
-1676 -2952 0
-1673 -2953 0
-1674 -2954 0
-1675 -2955 0
-1676 -2956 0
-1673 -3337 0
-1674 -3338 0
-1675 -3339 0
-1676 -3340 0
-1673 -5649 0
-1674 -5650 0
-1675 -5651 0
-1676 -5652 0
-1673 -2585 0
-1674 -2586 0
-1675 -2587 0
-1676 -2588 0
-1673 -2729 0
-1674 -2730 0
-1675 -2731 0
-1676 -2732 0
-1673 -5173 0
-1674 -5174 0
-1675 -5175 0
-1676 -5176 0
-1673 -3525 0
-1674 -3526 0
-1675 -3527 0
-1676 -3528 0
-1673 -4933 0
-1674 -4934 0
-1675 -4935 0
-1676 -4936 0
-1673 -1757 0
-1674 -1758 0
-1675 -1759 0
-1676 -1760 0
-1673 -1913 0
-1674 -1914 0
-1675 -1915 0
-1676 -1916 0
-1677 -3597 0
-1678 -3598 0
-1679 -3599 0
-1680 -3600 0
-1677 -3669 0
-1678 -3670 0
-1679 -3671 0
-1680 -3672 0
-1677 -2673 0
-1678 -2674 0
-1679 -2675 0
-1680 -2676 0
-1677 -1681 0
-1678 -1682 0
-1679 -1683 0
-1680 -1684 0
-1677 -3733 0
-1678 -3734 0
-1679 -3735 0
-1680 -3736 0
-1677 -3741 0
-1678 -3742 0
-1679 -3743 0
-1680 -3744 0
-1677 -2793 0
-1678 -2794 0
-1679 -2795 0
-1680 -2796 0
-1677 -2797 0
-1678 -2798 0
-1679 -2799 0
-1680 -2800 0
-1677 -3341 0
-1678 -3342 0
-1679 -3343 0
-1680 -3344 0
-1677 -5965 0
-1678 -5966 0
-1679 -5967 0
-1680 -5968 0
-1677 -5969 0
-1678 -5970 0
-1679 -5971 0
-1680 -5972 0
-1677 -4949 0
-1678 -4950 0
-1679 -4951 0
-1680 -4952 0
-1677 -2909 0
-1678 -2910 0
-1679 -2911 0
-1680 -2912 0
-1677 -1905 0
-1678 -1906 0
-1679 -1907 0
-1680 -1908 0
-1677 -1917 0
-1678 -1918 0
-1679 -1919 0
-1680 -1920 0
-1677 -2961 0
-1678 -2962 0
-1679 -2963 0
-1680 -2964 0
-1677 -1941 0
-1678 -1942 0
-1679 -1943 0
-1680 -1944 0
-1677 -5521 0
-1678 -5522 0
-1679 -5523 0
-1680 -5524 0
-1677 -3533 0
-1678 -3534 0
-1679 -3535 0
-1680 -3536 0
-1677 -4057 0
-1678 -4058 0
-1679 -4059 0
-1680 -4060 0
-1681 -3601 0
-1682 -3602 0
-1683 -3603 0
-1684 -3604 0
-1681 -1945 0
-1682 -1946 0
-1683 -1947 0
-1684 -1948 0
-1681 -3733 0
-1682 -3734 0
-1683 -3735 0
-1684 -3736 0
-1681 -4149 0
-1682 -4150 0
-1683 -4151 0
-1684 -4152 0
-1681 -2897 0
-1682 -2898 0
-1683 -2899 0
-1684 -2900 0
-1681 -4953 0
-1682 -4954 0
-1683 -4955 0
-1684 -4956 0
-1685 -3589 0
-1686 -3590 0
-1687 -3591 0
-1688 -3592 0
-1685 -2577 0
-1686 -2578 0
-1687 -2579 0
-1688 -2580 0
-1685 -5181 0
-1686 -5182 0
-1687 -5183 0
-1688 -5184 0
-1685 -4161 0
-1686 -4162 0
-1687 -4163 0
-1688 -4164 0
-1685 -5197 0
-1686 -5198 0
-1687 -5199 0
-1688 -5200 0
-1685 -4193 0
-1686 -4194 0
-1687 -4195 0
-1688 -4196 0
-1685 -2685 0
-1686 -2686 0
-1687 -2687 0
-1688 -2688 0
-1685 -1689 0
-1686 -1690 0
-1687 -1691 0
-1688 -1692 0
-1685 -5813 0
-1686 -5814 0
-1687 -5815 0
-1688 -5816 0
-1685 -2253 0
-1686 -2254 0
-1687 -2255 0
-1688 -2256 0
-1685 -3357 0
-1686 -3358 0
-1687 -3359 0
-1688 -3360 0
-1685 -1989 0
-1686 -1990 0
-1687 -1991 0
-1688 -1992 0
-1685 -2545 0
-1686 -2546 0
-1687 -2547 0
-1688 -2548 0
-1685 -2553 0
-1686 -2554 0
-1687 -2555 0
-1688 -2556 0
-1689 -3601 0
-1690 -3602 0
-1691 -3603 0
-1692 -3604 0
-1689 -2581 0
-1690 -2582 0
-1691 -2583 0
-1692 -2584 0
-1689 -5665 0
-1690 -5666 0
-1691 -5667 0
-1692 -5668 0
-1689 -2257 0
-1690 -2258 0
-1691 -2259 0
-1692 -2260 0
-1689 -2793 0
-1690 -2794 0
-1691 -2795 0
-1692 -2796 0
-1689 -1785 0
-1690 -1786 0
-1691 -1787 0
-1692 -1788 0
-1689 -3357 0
-1690 -3358 0
-1691 -3359 0
-1692 -3360 0
-1689 -2925 0
-1690 -2926 0
-1691 -2927 0
-1692 -2928 0
-1689 -3441 0
-1690 -3442 0
-1691 -3443 0
-1692 -3444 0
-1689 -3973 0
-1690 -3974 0
-1691 -3975 0
-1692 -3976 0
-1689 -2989 0
-1690 -2990 0
-1691 -2991 0
-1692 -2992 0
-1689 -2485 0
-1690 -2486 0
-1691 -2487 0
-1692 -2488 0
-1689 -1993 0
-1690 -1994 0
-1691 -1995 0
-1692 -1996 0
-1689 -3029 0
-1690 -3030 0
-1691 -3031 0
-1692 -3032 0
-1689 -3541 0
-1690 -3542 0
-1691 -3543 0
-1692 -3544 0
-1689 -5601 0
-1690 -5602 0
-1691 -5603 0
-1692 -5604 0
-1689 -2549 0
-1690 -2550 0
-1691 -2551 0
-1692 -2552 0
-1689 -2557 0
-1690 -2558 0
-1691 -2559 0
-1692 -2560 0
-1693 -2593 0
-1694 -2594 0
-1695 -2595 0
-1696 -2596 0
-1693 -5153 0
-1694 -5154 0
-1695 -5155 0
-1696 -5156 0
-1693 -5185 0
-1694 -5186 0
-1695 -5187 0
-1696 -5188 0
-1693 -4173 0
-1694 -4174 0
-1695 -4175 0
-1696 -4176 0
-1693 -3677 0
-1694 -3678 0
-1695 -3679 0
-1696 -3680 0
-1693 -4757 0
-1694 -4758 0
-1695 -4759 0
-1696 -4760 0
-1693 -1697 0
-1694 -1698 0
-1695 -1699 0
-1696 -1700 0
-1693 -1701 0
-1694 -1702 0
-1695 -1703 0
-1696 -1704 0
-1693 -2741 0
-1694 -2742 0
-1695 -2743 0
-1696 -2744 0
-1693 -1733 0
-1694 -1734 0
-1695 -1735 0
-1696 -1736 0
-1693 -4321 0
-1694 -4322 0
-1695 -4323 0
-1696 -4324 0
-1693 -3361 0
-1694 -3362 0
-1695 -3363 0
-1696 -3364 0
-1693 -3369 0
-1694 -3370 0
-1695 -3371 0
-1696 -3372 0
-1693 -3897 0
-1694 -3898 0
-1695 -3899 0
-1696 -3900 0
-1693 -4945 0
-1694 -4946 0
-1695 -4947 0
-1696 -4948 0
-1693 -3977 0
-1694 -3978 0
-1695 -3979 0
-1696 -3980 0
-1693 -1937 0
-1694 -1938 0
-1695 -1939 0
-1696 -1940 0
-1693 -2965 0
-1694 -2966 0
-1695 -2967 0
-1696 -2968 0
-1693 -3037 0
-1694 -3038 0
-1695 -3039 0
-1696 -3040 0
-1693 -4601 0
-1694 -4602 0
-1695 -4603 0
-1696 -4604 0
-1697 -3605 0
-1698 -3606 0
-1699 -3607 0
-1700 -3608 0
-1697 -3609 0
-1698 -3610 0
-1699 -3611 0
-1700 -3612 0
-1697 -5157 0
-1698 -5158 0
-1699 -5159 0
-1700 -5160 0
-1697 -5669 0
-1698 -5670 0
-1699 -5671 0
-1700 -5672 0
-1697 -5189 0
-1698 -5190 0
-1699 -5191 0
-1700 -5192 0
-1697 -3741 0
-1698 -3742 0
-1699 -3743 0
-1700 -3744 0
-1697 -1713 0
-1698 -1714 0
-1699 -1715 0
-1700 -1716 0
-1697 -1737 0
-1698 -1738 0
-1699 -1739 0
-1700 -1740 0
-1697 -4325 0
-1698 -4326 0
-1699 -4327 0
-1700 -4328 0
-1697 -1789 0
-1698 -1790 0
-1699 -1791 0
-1700 -1792 0
-1697 -3373 0
-1698 -3374 0
-1699 -3375 0
-1700 -3376 0
-1697 -4929 0
-1698 -4930 0
-1699 -4931 0
-1700 -4932 0
-1697 -5969 0
-1698 -5970 0
-1699 -5971 0
-1700 -5972 0
-1697 -4949 0
-1698 -4950 0
-1699 -4951 0
-1700 -4952 0
-1697 -2917 0
-1698 -2918 0
-1699 -2919 0
-1700 -2920 0
-1697 -2961 0
-1698 -2962 0
-1699 -2963 0
-1700 -2964 0
-1697 -1941 0
-1698 -1942 0
-1699 -1943 0
-1700 -1944 0
-1697 -3545 0
-1698 -3546 0
-1699 -3547 0
-1700 -3548 0
-1697 -3041 0
-1698 -3042 0
-1699 -3043 0
-1700 -3044 0
-1701 -5165 0
-1702 -5166 0
-1703 -5167 0
-1704 -5168 0
-1701 -2653 0
-1702 -2654 0
-1703 -2655 0
-1704 -2656 0
-1701 -4185 0
-1702 -4186 0
-1703 -4187 0
-1704 -4188 0
-1701 -4201 0
-1702 -4202 0
-1703 -4203 0
-1704 -4204 0
-1701 -2677 0
-1702 -2678 0
-1703 -2679 0
-1704 -2680 0
-1701 -1741 0
-1702 -1742 0
-1703 -1743 0
-1704 -1744 0
-1701 -4333 0
-1702 -4334 0
-1703 -4335 0
-1704 -4336 0
-1701 -3369 0
-1702 -3370 0
-1703 -3371 0
-1704 -3372 0
-1701 -3377 0
-1702 -3378 0
-1703 -3379 0
-1704 -3380 0
-1701 -4961 0
-1702 -4962 0
-1703 -4963 0
-1704 -4964 0
-1701 -2925 0
-1702 -2926 0
-1703 -2927 0
-1704 -2928 0
-1701 -1933 0
-1702 -1934 0
-1703 -1935 0
-1704 -1936 0
-1701 -3989 0
-1702 -3990 0
-1703 -3991 0
-1704 -3992 0
-1701 -1949 0
-1702 -1950 0
-1703 -1951 0
-1704 -1952 0
-1701 -6073 0
-1702 -6074 0
-1703 -6075 0
-1704 -6076 0
-1701 -3049 0
-1702 -3050 0
-1703 -3051 0
-1704 -3052 0
-1705 -1793 0
-1706 -1794 0
-1707 -1795 0
-1708 -1796 0
-1705 -5217 0
-1706 -5218 0
-1707 -5219 0
-1708 -5220 0
-1705 -2965 0
-1706 -2966 0
-1707 -2967 0
-1708 -2968 0
-1705 -1709 0
-1706 -1710 0
-1707 -1711 0
-1708 -1712 0
-1705 -3381 0
-1706 -3382 0
-1707 -3383 0
-1708 -3384 0
-1705 -5825 0
-1706 -5826 0
-1707 -5827 0
-1708 -5828 0
-1705 -5193 0
-1706 -5194 0
-1707 -5195 0
-1708 -5196 0
-1705 -2657 0
-1706 -2658 0
-1707 -2659 0
-1708 -2660 0
-1709 -4189 0
-1710 -4190 0
-1711 -4191 0
-1712 -4192 0
-1709 -2665 0
-1710 -2666 0
-1711 -2667 0
-1712 -2668 0
-1709 -4205 0
-1710 -4206 0
-1711 -4207 0
-1712 -4208 0
-1709 -5229 0
-1710 -5230 0
-1711 -5231 0
-1712 -5232 0
-1709 -1713 0
-1710 -1714 0
-1711 -1715 0
-1712 -1716 0
-1709 -5809 0
-1710 -5810 0
-1711 -5811 0
-1712 -5812 0
-1709 -1797 0
-1710 -1798 0
-1711 -1799 0
-1712 -1800 0
-1709 -3397 0
-1710 -3398 0
-1711 -3399 0
-1712 -3400 0
-1709 -4941 0
-1710 -4942 0
-1711 -4943 0
-1712 -4944 0
-1709 -4961 0
-1710 -4962 0
-1711 -4963 0
-1712 -4964 0
-1709 -3449 0
-1710 -3450 0
-1711 -3451 0
-1712 -3452 0
-1709 -2945 0
-1710 -2946 0
-1711 -2947 0
-1712 -2948 0
-1709 -1949 0
-1710 -1950 0
-1711 -1951 0
-1712 -1952 0
-1709 -2973 0
-1710 -2974 0
-1711 -2975 0
-1712 -2976 0
-1713 -5673 0
-1714 -5674 0
-1715 -5675 0
-1716 -5676 0
-1713 -5821 0
-1714 -5822 0
-1715 -5823 0
-1716 -5824 0
-1713 -3397 0
-1714 -3398 0
-1715 -3399 0
-1716 -3400 0
-1713 -4949 0
-1714 -4950 0
-1715 -4951 0
-1716 -4952 0
-1713 -4965 0
-1714 -4966 0
-1715 -4967 0
-1716 -4968 0
-1713 -2949 0
-1714 -2950 0
-1715 -2951 0
-1716 -2952 0
-1713 -2977 0
-1714 -2978 0
-1715 -2979 0
-1716 -2980 0
-1713 -3061 0
-1714 -3062 0
-1715 -3063 0
-1716 -3064 0
-1717 -3081 0
-1718 -3082 0
-1719 -3083 0
-1720 -3084 0
-1717 -4233 0
-1718 -4234 0
-1719 -4235 0
-1720 -4236 0
-1717 -2985 0
-1718 -2986 0
-1719 -2987 0
-1720 -2988 0
-1717 -1965 0
-1718 -1966 0
-1719 -1967 0
-1720 -1968 0
-1717 -4009 0
-1718 -4010 0
-1719 -4011 0
-1720 -4012 0
-1717 -5045 0
-1718 -5046 0
-1719 -5047 0
-1720 -5048 0
-1717 -1721 0
-1718 -1722 0
-1719 -1723 0
-1720 -1724 0
-1717 -1725 0
-1718 -1726 0
-1719 -1727 0
-1720 -1728 0
-1717 -2293 0
-1718 -2294 0
-1719 -2295 0
-1720 -2296 0
-1721 -3093 0
-1722 -3094 0
-1723 -3095 0
-1724 -3096 0
-1721 -3625 0
-1722 -3626 0
-1723 -3627 0
-1724 -3628 0
-1721 -5217 0
-1722 -5218 0
-1723 -5219 0
-1724 -5220 0
-1721 -4209 0
-1722 -4210 0
-1723 -4211 0
-1724 -4212 0
-1721 -2689 0
-1722 -2690 0
-1723 -2691 0
-1724 -2692 0
-1721 -2705 0
-1722 -2706 0
-1723 -2707 0
-1724 -2708 0
-1721 -4241 0
-1722 -4242 0
-1723 -4243 0
-1724 -4244 0
-1721 -1733 0
-1722 -1734 0
-1723 -1735 0
-1724 -1736 0
-1721 -1749 0
-1722 -1750 0
-1723 -1751 0
-1724 -1752 0
-1721 -1845 0
-1722 -1846 0
-1723 -1847 0
-1724 -1848 0
-1721 -3389 0
-1722 -3390 0
-1723 -3391 0
-1724 -3392 0
-1721 -3421 0
-1722 -3422 0
-1723 -3423 0
-1724 -3424 0
-1721 -4969 0
-1722 -4970 0
-1723 -4971 0
-1724 -4972 0
-1721 -4977 0
-1722 -4978 0
-1723 -4979 0
-1724 -4980 0
-1721 -6013 0
-1722 -6014 0
-1723 -6015 0
-1724 -6016 0
-1721 -4013 0
-1722 -4014 0
-1723 -4015 0
-1724 -4016 0
-1721 -5053 0
-1722 -5054 0
-1723 -5055 0
-1724 -5056 0
-1725 -4625 0
-1726 -4626 0
-1727 -4627 0
-1728 -4628 0
-1725 -3117 0
-1726 -3118 0
-1727 -3119 0
-1728 -3120 0
-1725 -3633 0
-1726 -3634 0
-1727 -3635 0
-1728 -3636 0
-1725 -5233 0
-1726 -5234 0
-1727 -5235 0
-1728 -5236 0
-1725 -4221 0
-1726 -4222 0
-1727 -4223 0
-1728 -4224 0
-1725 -4733 0
-1726 -4734 0
-1727 -4735 0
-1728 -4736 0
-1725 -4257 0
-1726 -4258 0
-1727 -4259 0
-1728 -4260 0
-1725 -3753 0
-1726 -3754 0
-1727 -3755 0
-1728 -3756 0
-1725 -1733 0
-1726 -1734 0
-1727 -1735 0
-1728 -1736 0
-1725 -5829 0
-1726 -5830 0
-1727 -5831 0
-1728 -5832 0
-1725 -5841 0
-1726 -5842 0
-1727 -5843 0
-1728 -5844 0
-1725 -5421 0
-1726 -5422 0
-1727 -5423 0
-1728 -5424 0
-1725 -3429 0
-1726 -3430 0
-1727 -3431 0
-1728 -3432 0
-1725 -4985 0
-1726 -4986 0
-1727 -4987 0
-1728 -4988 0
-1725 -2973 0
-1726 -2974 0
-1727 -2975 0
-1728 -2976 0
-1725 -2981 0
-1726 -2982 0
-1727 -2983 0
-1728 -2984 0
-1725 -1977 0
-1726 -1978 0
-1727 -1979 0
-1728 -1980 0
-1725 -4029 0
-1726 -4030 0
-1727 -4031 0
-1728 -4032 0
-1729 -2693 0
-1730 -2694 0
-1731 -2695 0
-1732 -2696 0
-1729 -4229 0
-1730 -4230 0
-1731 -4231 0
-1732 -4232 0
-1729 -3757 0
-1730 -3758 0
-1731 -3759 0
-1732 -3760 0
-1729 -3129 0
-1730 -3130 0
-1731 -3131 0
-1732 -3132 0
-1729 -4409 0
-1730 -4410 0
-1731 -4411 0
-1732 -4412 0
-1729 -1733 0
-1730 -1734 0
-1731 -1735 0
-1732 -1736 0
-1729 -1861 0
-1730 -1862 0
-1731 -1863 0
-1732 -1864 0
-1729 -4037 0
-1730 -4038 0
-1731 -4039 0
-1732 -4040 0
-1729 -5205 0
-1730 -5206 0
-1731 -5207 0
-1732 -5208 0
-1733 -4633 0
-1734 -4634 0
-1735 -4635 0
-1736 -4636 0
-1733 -2593 0
-1734 -2594 0
-1735 -2595 0
-1736 -2596 0
-1733 -2597 0
-1734 -2598 0
-1735 -2599 0
-1736 -2600 0
-1733 -2601 0
-1734 -2602 0
-1735 -2603 0
-1736 -2604 0
-1733 -3773 0
-1734 -3774 0
-1735 -3775 0
-1736 -3776 0
-1733 -3133 0
-1734 -3134 0
-1735 -3135 0
-1736 -3136 0
-1733 -3645 0
-1734 -3646 0
-1735 -3647 0
-1736 -3648 0
-1733 -4737 0
-1734 -4738 0
-1735 -4739 0
-1736 -4740 0
-1733 -4233 0
-1734 -4234 0
-1735 -4235 0
-1736 -4236 0
-1733 -2725 0
-1734 -2726 0
-1735 -2727 0
-1736 -2728 0
-1733 -4261 0
-1734 -4262 0
-1735 -4263 0
-1736 -4264 0
-1733 -3757 0
-1734 -3758 0
-1735 -3759 0
-1736 -3760 0
-1733 -3761 0
-1734 -3762 0
-1735 -3763 0
-1736 -3764 0
-1733 -1737 0
-1734 -1738 0
-1735 -1739 0
-1736 -1740 0
-1733 -1741 0
-1734 -1742 0
-1735 -1743 0
-1736 -1744 0
-1733 -1745 0
-1734 -1746 0
-1735 -1747 0
-1736 -1748 0
-1733 -1753 0
-1734 -1754 0
-1735 -1755 0
-1736 -1756 0
-1733 -2793 0
-1734 -2794 0
-1735 -2795 0
-1736 -2796 0
-1733 -2809 0
-1734 -2810 0
-1735 -2811 0
-1736 -2812 0
-1733 -5429 0
-1734 -5430 0
-1735 -5431 0
-1736 -5432 0
-1733 -4413 0
-1734 -4414 0
-1735 -4415 0
-1736 -4416 0
-1733 -3429 0
-1734 -3430 0
-1735 -3431 0
-1736 -3432 0
-1733 -3437 0
-1734 -3438 0
-1735 -3439 0
-1736 -3440 0
-1733 -4977 0
-1734 -4978 0
-1735 -4979 0
-1736 -4980 0
-1733 -4989 0
-1734 -4990 0
-1735 -4991 0
-1736 -4992 0
-1733 -3473 0
-1734 -3474 0
-1735 -3475 0
-1736 -3476 0
-1733 -2969 0
-1734 -2970 0
-1735 -2971 0
-1736 -2972 0
-1733 -2977 0
-1734 -2978 0
-1735 -2979 0
-1736 -2980 0
-1733 -2985 0
-1734 -2986 0
-1735 -2987 0
-1736 -2988 0
-1733 -2993 0
-1734 -2994 0
-1735 -2995 0
-1736 -2996 0
-1733 -1985 0
-1734 -1986 0
-1735 -1987 0
-1736 -1988 0
-1733 -4041 0
-1734 -4042 0
-1735 -4043 0
-1736 -4044 0
-1733 -2041 0
-1734 -2042 0
-1735 -2043 0
-1736 -2044 0
-1737 -4993 0
-1738 -4994 0
-1739 -4995 0
-1740 -4996 0
-1737 -4237 0
-1738 -4238 0
-1739 -4239 0
-1740 -4240 0
-1737 -3761 0
-1738 -3762 0
-1739 -3763 0
-1740 -3764 0
-1737 -5693 0
-1738 -5694 0
-1739 -5695 0
-1740 -5696 0
-1737 -3137 0
-1738 -3138 0
-1739 -3139 0
-1740 -3140 0
-1737 -5833 0
-1738 -5834 0
-1739 -5835 0
-1740 -5836 0
-1737 -3409 0
-1738 -3410 0
-1739 -3411 0
-1740 -3412 0
-1737 -4981 0
-1738 -4982 0
-1739 -4983 0
-1740 -4984 0
-1741 -2049 0
-1742 -2050 0
-1743 -2051 0
-1744 -2052 0
-1741 -2693 0
-1742 -2694 0
-1743 -2695 0
-1744 -2696 0
-1741 -4241 0
-1742 -4242 0
-1743 -4243 0
-1744 -4244 0
-1741 -3145 0
-1742 -3146 0
-1743 -3147 0
-1744 -3148 0
-1741 -5217 0
-1742 -5218 0
-1743 -5219 0
-1744 -5220 0
-1741 -3437 0
-1742 -3438 0
-1743 -3439 0
-1744 -3440 0
-1745 -4757 0
-1746 -4758 0
-1747 -4759 0
-1748 -4760 0
-1745 -2973 0
-1746 -2974 0
-1747 -2975 0
-1748 -2976 0
-1745 -4257 0
-1746 -4258 0
-1747 -4259 0
-1748 -4260 0
-1745 -4433 0
-1746 -4434 0
-1747 -4435 0
-1748 -4436 0
-1745 -5841 0
-1746 -5842 0
-1747 -5843 0
-1748 -5844 0
-1745 -3169 0
-1746 -3170 0
-1747 -3171 0
-1748 -3172 0
-1745 -5233 0
-1746 -5234 0
-1747 -5235 0
-1748 -5236 0
-1745 -4989 0
-1746 -4990 0
-1747 -4991 0
-1748 -4992 0
-1749 -3201 0
-1750 -3202 0
-1751 -3203 0
-1752 -3204 0
-1749 -4997 0
-1750 -4998 0
-1751 -4999 0
-1752 -5000 0
-1749 -1941 0
-1750 -1942 0
-1751 -1943 0
-1752 -1944 0
-1749 -2073 0
-1750 -2074 0
-1751 -2075 0
-1752 -2076 0
-1749 -4269 0
-1750 -4270 0
-1751 -4271 0
-1752 -4272 0
-1749 -4649 0
-1750 -4650 0
-1751 -4651 0
-1752 -4652 0
-1749 -1753 0
-1750 -1754 0
-1751 -1755 0
-1752 -1756 0
-1753 -3221 0
-1754 -3222 0
-1755 -3223 0
-1756 -3224 0
-1753 -2601 0
-1754 -2602 0
-1755 -2603 0
-1756 -2604 0
-1753 -4265 0
-1754 -4266 0
-1755 -4267 0
-1756 -4268 0
-1753 -3517 0
-1754 -3518 0
-1755 -3519 0
-1756 -3520 0
-1753 -4673 0
-1754 -4674 0
-1755 -4675 0
-1756 -4676 0
-1757 -4873 0
-1758 -4874 0
-1759 -4875 0
-1760 -4876 0
-1757 -2605 0
-1758 -2606 0
-1759 -2607 0
-1760 -2608 0
-1757 -2609 0
-1758 -2610 0
-1759 -2611 0
-1760 -2612 0
-1757 -3005 0
-1758 -3006 0
-1759 -3007 0
-1760 -3008 0
-1757 -2633 0
-1758 -2634 0
-1759 -2635 0
-1760 -2636 0
-1757 -3037 0
-1758 -3038 0
-1759 -3039 0
-1760 -3040 0
-1757 -2549 0
-1758 -2550 0
-1759 -2551 0
-1760 -2552 0
-1757 -3449 0
-1758 -3450 0
-1759 -3451 0
-1760 -3452 0
-1761 -3717 0
-1762 -3718 0
-1763 -3719 0
-1764 -3720 0
-1761 -3097 0
-1762 -3098 0
-1763 -3099 0
-1764 -3100 0
-1761 -1829 0
-1762 -1830 0
-1763 -1831 0
-1764 -1832 0
-1761 -2861 0
-1762 -2862 0
-1763 -2863 0
-1764 -2864 0
-1761 -2633 0
-1762 -2634 0
-1763 -2635 0
-1764 -2636 0
-1761 -3793 0
-1762 -3794 0
-1763 -3795 0
-1764 -3796 0
-1761 -2773 0
-1762 -2774 0
-1763 -2775 0
-1764 -2776 0
-1761 -3037 0
-1762 -3038 0
-1763 -3039 0
-1764 -3040 0
-1761 -1765 0
-1762 -1766 0
-1763 -1767 0
-1764 -1768 0
-1761 -2025 0
-1762 -2026 0
-1763 -2027 0
-1764 -2028 0
-1761 -3705 0
-1762 -3706 0
-1763 -3707 0
-1764 -3708 0
-1765 -3713 0
-1766 -3714 0
-1767 -3715 0
-1768 -3716 0
-1765 -2845 0
-1766 -2846 0
-1767 -2847 0
-1768 -2848 0
-1765 -1837 0
-1766 -1838 0
-1767 -1839 0
-1768 -1840 0
-1765 -4149 0
-1766 -4150 0
-1767 -4151 0
-1768 -4152 0
-1765 -3049 0
-1766 -3050 0
-1767 -3051 0
-1768 -3052 0
-1765 -2033 0
-1766 -2034 0
-1767 -2035 0
-1768 -2036 0
-1765 -3449 0
-1766 -3450 0
-1767 -3451 0
-1768 -3452 0
-1769 -3093 0
-1770 -3094 0
-1771 -3095 0
-1772 -3096 0
-1769 -4629 0
-1770 -4630 0
-1771 -4631 0
-1772 -4632 0
-1769 -5009 0
-1770 -5010 0
-1771 -5011 0
-1772 -5012 0
-1769 -5025 0
-1770 -5026 0
-1771 -5027 0
-1772 -5028 0
-1769 -3121 0
-1770 -3122 0
-1771 -3123 0
-1772 -3124 0
-1769 -2885 0
-1770 -2886 0
-1771 -2887 0
-1772 -2888 0
-1769 -2789 0
-1770 -2790 0
-1771 -2791 0
-1772 -2792 0
-1769 -1773 0
-1770 -1774 0
-1771 -1775 0
-1772 -1776 0
-1769 -3045 0
-1770 -3046 0
-1771 -3047 0
-1772 -3048 0
-1769 -2029 0
-1770 -2030 0
-1771 -2031 0
-1772 -2032 0
-1769 -5621 0
-1770 -5622 0
-1771 -5623 0
-1772 -5624 0
-1773 -3049 0
-1774 -3050 0
-1775 -3051 0
-1776 -3052 0
-1773 -3097 0
-1774 -3098 0
-1775 -3099 0
-1776 -3100 0
-1773 -4277 0
-1774 -4278 0
-1775 -4279 0
-1776 -4280 0
-1773 -2889 0
-1774 -2890 0
-1775 -2891 0
-1776 -2892 0
-1773 -4297 0
-1774 -4298 0
-1775 -4299 0
-1776 -4300 0
-1773 -2033 0
-1774 -2034 0
-1775 -2035 0
-1776 -2036 0
-1773 -1785 0
-1774 -1786 0
-1775 -1787 0
-1776 -1788 0
-1777 -2561 0
-1778 -2562 0
-1779 -2563 0
-1780 -2564 0
-1777 -2569 0
-1778 -2570 0
-1779 -2571 0
-1780 -2572 0
-1777 -4641 0
-1778 -4642 0
-1779 -4643 0
-1780 -4644 0
-1777 -3117 0
-1778 -3118 0
-1779 -3119 0
-1780 -3120 0
-1777 -3157 0
-1778 -3158 0
-1779 -3159 0
-1780 -3160 0
-1777 -2661 0
-1778 -2662 0
-1779 -2663 0
-1780 -2664 0
-1777 -5257 0
-1778 -5258 0
-1779 -5259 0
-1780 -5260 0
-1777 -5265 0
-1778 -5266 0
-1779 -5267 0
-1780 -5268 0
-1777 -4301 0
-1778 -4302 0
-1779 -4303 0
-1780 -4304 0
-1777 -2777 0
-1778 -2778 0
-1779 -2779 0
-1780 -2780 0
-1777 -3801 0
-1778 -3802 0
-1779 -3803 0
-1780 -3804 0
-1777 -1793 0
-1778 -1794 0
-1779 -1795 0
-1780 -1796 0
-1777 -1801 0
-1778 -1802 0
-1779 -1803 0
-1780 -1804 0
-1777 -1853 0
-1778 -1854 0
-1779 -1855 0
-1780 -1856 0
-1777 -3481 0
-1778 -3482 0
-1779 -3483 0
-1780 -3484 0
-1777 -3013 0
-1778 -3014 0
-1779 -3015 0
-1780 -3016 0
-1777 -3049 0
-1778 -3050 0
-1779 -3051 0
-1780 -3052 0
-1781 -4113 0
-1782 -4114 0
-1783 -4115 0
-1784 -4116 0
-1781 -3477 0
-1782 -3478 0
-1783 -3479 0
-1784 -3480 0
-1781 -5269 0
-1782 -5270 0
-1783 -5271 0
-1784 -5272 0
-1781 -5021 0
-1782 -5022 0
-1783 -5023 0
-1784 -5024 0
-1781 -2721 0
-1782 -2722 0
-1783 -2723 0
-1784 -2724 0
-1781 -3129 0
-1782 -3130 0
-1783 -3131 0
-1784 -3132 0
-1781 -2757 0
-1782 -2758 0
-1783 -2759 0
-1784 -2760 0
-1781 -3161 0
-1782 -3162 0
-1783 -3163 0
-1784 -3164 0
-1781 -5449 0
-1782 -5450 0
-1783 -5451 0
-1784 -5452 0
-1781 -2921 0
-1782 -2922 0
-1783 -2923 0
-1784 -2924 0
-1781 -5613 0
-1782 -5614 0
-1783 -5615 0
-1784 -5616 0
-1785 -2057 0
-1786 -2058 0
-1787 -2059 0
-1788 -2060 0
-1785 -4925 0
-1786 -4926 0
-1787 -4927 0
-1788 -4928 0
-1785 -3137 0
-1786 -3138 0
-1787 -3139 0
-1788 -3140 0
-1785 -2785 0
-1786 -2786 0
-1787 -2787 0
-1788 -2788 0
-1785 -5865 0
-1786 -5866 0
-1787 -5867 0
-1788 -5868 0
-1785 -2929 0
-1786 -2930 0
-1787 -2931 0
-1788 -2932 0
-1789 -3601 0
-1790 -3602 0
-1791 -3603 0
-1792 -3604 0
-1789 -3485 0
-1790 -3486 0
-1791 -3487 0
-1792 -3488 0
-1789 -2721 0
-1790 -2722 0
-1791 -2723 0
-1792 -2724 0
-1789 -3897 0
-1790 -3898 0
-1791 -3899 0
-1792 -3900 0
-1789 -4933 0
-1790 -4934 0
-1791 -4935 0
-1792 -4936 0
-1789 -3145 0
-1790 -3146 0
-1791 -3147 0
-1792 -3148 0
-1789 -3173 0
-1790 -3174 0
-1791 -3175 0
-1792 -3176 0
-1789 -3685 0
-1790 -3686 0
-1791 -3687 0
-1792 -3688 0
-1793 -1797 0
-1794 -1798 0
-1795 -1799 0
-1796 -1800 0
-1793 -3201 0
-1794 -3202 0
-1795 -3203 0
-1796 -3204 0
-1793 -3185 0
-1794 -3186 0
-1795 -3187 0
-1796 -3188 0
-1793 -3609 0
-1794 -3610 0
-1795 -3611 0
-1796 -3612 0
-1793 -1825 0
-1794 -1826 0
-1795 -1827 0
-1796 -1828 0
-1793 -3621 0
-1794 -3622 0
-1795 -3623 0
-1796 -3624 0
-1793 -3905 0
-1794 -3906 0
-1795 -3907 0
-1796 -3908 0
-1793 -3161 0
-1794 -3162 0
-1795 -3163 0
-1796 -3164 0
-1793 -3037 0
-1794 -3038 0
-1795 -3039 0
-1796 -3040 0
-1793 -2677 0
-1794 -2678 0
-1795 -2679 0
-1796 -2680 0
-1797 -5265 0
-1798 -5266 0
-1799 -5267 0
-1800 -5268 0
-1797 -5029 0
-1798 -5030 0
-1799 -5031 0
-1800 -5032 0
-1797 -1869 0
-1798 -1870 0
-1799 -1871 0
-1800 -1872 0
-1797 -4301 0
-1798 -4302 0
-1799 -4303 0
-1800 -4304 0
-1797 -3169 0
-1798 -3170 0
-1799 -3171 0
-1800 -3172 0
-1797 -3049 0
-1798 -3050 0
-1799 -3051 0
-1800 -3052 0
-1801 -1805 0
-1802 -1806 0
-1803 -1807 0
-1804 -1808 0
-1801 -3089 0
-1802 -3090 0
-1803 -3091 0
-1804 -3092 0
-1801 -2841 0
-1802 -2842 0
-1803 -2843 0
-1804 -2844 0
-1801 -1825 0
-1802 -1826 0
-1803 -1827 0
-1804 -1828 0
-1801 -6101 0
-1802 -6102 0
-1803 -6103 0
-1804 -6104 0
-1801 -3037 0
-1802 -3038 0
-1803 -3039 0
-1804 -3040 0
-1805 -3077 0
-1806 -3078 0
-1807 -3079 0
-1808 -3080 0
-1805 -5517 0
-1806 -5518 0
-1807 -5519 0
-1808 -5520 0
-1805 -5637 0
-1806 -5638 0
-1807 -5639 0
-1808 -5640 0
-1805 -3093 0
-1806 -3094 0
-1807 -3095 0
-1808 -3096 0
-1805 -2845 0
-1806 -2846 0
-1807 -2847 0
-1808 -2848 0
-1805 -1829 0
-1806 -1830 0
-1807 -1831 0
-1808 -1832 0
-1805 -5037 0
-1806 -5038 0
-1807 -5039 0
-1808 -5040 0
-1805 -2885 0
-1806 -2886 0
-1807 -2887 0
-1808 -2888 0
-1805 -3657 0
-1806 -3658 0
-1807 -3659 0
-1808 -3660 0
-1805 -3833 0
-1806 -3834 0
-1807 -3835 0
-1808 -3836 0
-1805 -6105 0
-1806 -6106 0
-1807 -6107 0
-1808 -6108 0
-1805 -1885 0
-1806 -1886 0
-1807 -1887 0
-1808 -1888 0
-1805 -3041 0
-1806 -3042 0
-1807 -3043 0
-1808 -3044 0
-1805 -2937 0
-1806 -2938 0
-1807 -2939 0
-1808 -2940 0
-1809 -3097 0
-1810 -3098 0
-1811 -3099 0
-1812 -3100 0
-1809 -3493 0
-1810 -3494 0
-1811 -3495 0
-1812 -3496 0
-1809 -2353 0
-1810 -2354 0
-1811 -2355 0
-1812 -2356 0
-1809 -2617 0
-1810 -2618 0
-1811 -2619 0
-1812 -2620 0
-1809 -3661 0
-1810 -3662 0
-1811 -3663 0
-1812 -3664 0
-1813 -3077 0
-1814 -3078 0
-1815 -3079 0
-1816 -3080 0
-1813 -2069 0
-1814 -2070 0
-1815 -2071 0
-1816 -2072 0
-1813 -4645 0
-1814 -4646 0
-1815 -4647 0
-1816 -4648 0
-1813 -3113 0
-1814 -3114 0
-1815 -3115 0
-1816 -3116 0
-1813 -2633 0
-1814 -2634 0
-1815 -2635 0
-1816 -2636 0
-1813 -2741 0
-1814 -2742 0
-1815 -2743 0
-1816 -2744 0
-1813 -4789 0
-1814 -4790 0
-1815 -4791 0
-1816 -4792 0
-1813 -2777 0
-1814 -2778 0
-1815 -2779 0
-1816 -2780 0
-1813 -3853 0
-1814 -3854 0
-1815 -3855 0
-1816 -3856 0
-1813 -1817 0
-1814 -1818 0
-1815 -1819 0
-1816 -1820 0
-1813 -1825 0
-1814 -1826 0
-1815 -1827 0
-1816 -1828 0
-1813 -1901 0
-1814 -1902 0
-1815 -1903 0
-1816 -1904 0
-1813 -6009 0
-1814 -6010 0
-1815 -6011 0
-1816 -6012 0
-1813 -3497 0
-1814 -3498 0
-1815 -3499 0
-1816 -3500 0
-1817 -2569 0
-1818 -2570 0
-1819 -2571 0
-1820 -2572 0
-1817 -5129 0
-1818 -5130 0
-1819 -5131 0
-1820 -5132 0
-1817 -3117 0
-1818 -3118 0
-1819 -3119 0
-1820 -3120 0
-1817 -2621 0
-1818 -2622 0
-1819 -2623 0
-1820 -2624 0
-1817 -5713 0
-1818 -5714 0
-1819 -5715 0
-1820 -5716 0
-1817 -2661 0
-1818 -2662 0
-1819 -2663 0
-1820 -2664 0
-1817 -4333 0
-1818 -4334 0
-1819 -4335 0
-1820 -4336 0
-1817 -3857 0
-1818 -3858 0
-1819 -3859 0
-1820 -3860 0
-1817 -1821 0
-1818 -1822 0
-1819 -1823 0
-1820 -1824 0
-1817 -1829 0
-1818 -1830 0
-1819 -1831 0
-1820 -1832 0
-1817 -1905 0
-1818 -1906 0
-1819 -1907 0
-1820 -1908 0
-1817 -3501 0
-1818 -3502 0
-1819 -3503 0
-1820 -3504 0
-1817 -5045 0
-1818 -5046 0
-1819 -5047 0
-1820 -5048 0
-1817 -1993 0
-1818 -1994 0
-1819 -1995 0
-1820 -1996 0
-1817 -3033 0
-1818 -3034 0
-1819 -3035 0
-1820 -3036 0
-1821 -5253 0
-1822 -5254 0
-1823 -5255 0
-1824 -5256 0
-1821 -5649 0
-1822 -5650 0
-1823 -5651 0
-1824 -5652 0
-1821 -2581 0
-1822 -2582 0
-1823 -2583 0
-1824 -2584 0
-1821 -3101 0
-1822 -3102 0
-1823 -3103 0
-1824 -3104 0
-1821 -1833 0
-1822 -1834 0
-1823 -1835 0
-1824 -1836 0
-1821 -3121 0
-1822 -3122 0
-1823 -3123 0
-1824 -3124 0
-1821 -2625 0
-1822 -2626 0
-1823 -2627 0
-1824 -2628 0
-1821 -3037 0
-1822 -3038 0
-1823 -3039 0
-1824 -3040 0
-1821 -2917 0
-1822 -2918 0
-1823 -2919 0
-1824 -2920 0
-1821 -2665 0
-1822 -2666 0
-1823 -2667 0
-1824 -2668 0
-1821 -4337 0
-1822 -4338 0
-1823 -4339 0
-1824 -4340 0
-1825 -2065 0
-1826 -2066 0
-1827 -2067 0
-1828 -2068 0
-1825 -2073 0
-1826 -2074 0
-1827 -2075 0
-1828 -2076 0
-1825 -4649 0
-1826 -4650 0
-1827 -4651 0
-1828 -4652 0
-1825 -3129 0
-1826 -3130 0
-1827 -3131 0
-1828 -3132 0
-1825 -3201 0
-1826 -3202 0
-1827 -3203 0
-1828 -3204 0
-1825 -5257 0
-1826 -5258 0
-1827 -5259 0
-1828 -5260 0
-1825 -5265 0
-1826 -5266 0
-1827 -5267 0
-1828 -5268 0
-1825 -2733 0
-1826 -2734 0
-1827 -2735 0
-1828 -2736 0
-1825 -3777 0
-1826 -3778 0
-1827 -3779 0
-1828 -3780 0
-1825 -2781 0
-1826 -2782 0
-1827 -2783 0
-1828 -2784 0
-1825 -3861 0
-1826 -3862 0
-1827 -3863 0
-1828 -3864 0
-1825 -1829 0
-1826 -1830 0
-1827 -1831 0
-1828 -1832 0
-1825 -2853 0
-1826 -2854 0
-1827 -2855 0
-1828 -2856 0
-1825 -5933 0
-1826 -5934 0
-1827 -5935 0
-1828 -5936 0
-1825 -1845 0
-1826 -1846 0
-1827 -1847 0
-1828 -1848 0
-1825 -2921 0
-1826 -2922 0
-1827 -2923 0
-1828 -2924 0
-1825 -1909 0
-1826 -1910 0
-1827 -1911 0
-1828 -1912 0
-1825 -2941 0
-1826 -2942 0
-1827 -2943 0
-1828 -2944 0
-1825 -3477 0
-1826 -3478 0
-1827 -3479 0
-1828 -3480 0
-1825 -4505 0
-1826 -4506 0
-1827 -4507 0
-1828 -4508 0
-1825 -3497 0
-1826 -3498 0
-1827 -3499 0
-1828 -3500 0
-1825 -5049 0
-1826 -5050 0
-1827 -5051 0
-1828 -5052 0
-1825 -5061 0
-1826 -5062 0
-1827 -5063 0
-1828 -5064 0
-1825 -3025 0
-1826 -3026 0
-1827 -3027 0
-1828 -3028 0
-1825 -6109 0
-1826 -6110 0
-1827 -6111 0
-1828 -6112 0
-1825 -3057 0
-1826 -3058 0
-1827 -3059 0
-1828 -3060 0
-1829 -2069 0
-1830 -2070 0
-1831 -2071 0
-1832 -2072 0
-1829 -2077 0
-1830 -2078 0
-1831 -2079 0
-1832 -2080 0
-1829 -2081 0
-1830 -2082 0
-1831 -2083 0
-1832 -2084 0
-1829 -4125 0
-1830 -4126 0
-1831 -4127 0
-1832 -4128 0
-1829 -4313 0
-1830 -4314 0
-1831 -4315 0
-1832 -4316 0
-1829 -4341 0
-1830 -4342 0
-1831 -4343 0
-1832 -4344 0
-1829 -2365 0
-1830 -2366 0
-1831 -2367 0
-1832 -2368 0
-1829 -2633 0
-1830 -2634 0
-1831 -2635 0
-1832 -2636 0
-1829 -2637 0
-1830 -2638 0
-1831 -2639 0
-1832 -2640 0
-1829 -2673 0
-1830 -2674 0
-1831 -2675 0
-1832 -2676 0
-1829 -2681 0
-1830 -2682 0
-1831 -2683 0
-1832 -2684 0
-1829 -4777 0
-1830 -4778 0
-1831 -4779 0
-1832 -4780 0
-1829 -2741 0
-1830 -2742 0
-1831 -2743 0
-1832 -2744 0
-1829 -2785 0
-1830 -2786 0
-1831 -2787 0
-1832 -2788 0
-1829 -2813 0
-1830 -2814 0
-1831 -2815 0
-1832 -2816 0
-1829 -2857 0
-1830 -2858 0
-1831 -2859 0
-1832 -2860 0
-1829 -2925 0
-1830 -2926 0
-1831 -2927 0
-1832 -2928 0
-1829 -2945 0
-1830 -2946 0
-1831 -2947 0
-1832 -2948 0
-1829 -5037 0
-1830 -5038 0
-1831 -5039 0
-1832 -5040 0
-1829 -5053 0
-1830 -5054 0
-1831 -5055 0
-1832 -5056 0
-1829 -5065 0
-1830 -5066 0
-1831 -5067 0
-1832 -5068 0
-1829 -3045 0
-1830 -3046 0
-1831 -3047 0
-1832 -3048 0
-1829 -3061 0
-1830 -3062 0
-1831 -3063 0
-1832 -3064 0
-1829 -3069 0
-1830 -3070 0
-1831 -3071 0
-1832 -3072 0
-1829 -3105 0
-1830 -3106 0
-1831 -3107 0
-1832 -3108 0
-1829 -3133 0
-1830 -3134 0
-1831 -3135 0
-1832 -3136 0
-1829 -3193 0
-1830 -3194 0
-1831 -3195 0
-1832 -3196 0
-1829 -3261 0
-1830 -3262 0
-1831 -3263 0
-1832 -3264 0
-1829 -3481 0
-1830 -3482 0
-1831 -3483 0
-1832 -3484 0
-1829 -3501 0
-1830 -3502 0
-1831 -3503 0
-1832 -3504 0
-1829 -3505 0
-1830 -3506 0
-1831 -3507 0
-1832 -3508 0
-1829 -5653 0
-1830 -5654 0
-1831 -5655 0
-1832 -5656 0
-1829 -3613 0
-1830 -3614 0
-1831 -3615 0
-1832 -3616 0
-1829 -3681 0
-1830 -3682 0
-1831 -3683 0
-1832 -3684 0
-1829 -3777 0
-1830 -3778 0
-1831 -3779 0
-1832 -3780 0
-1829 -3781 0
-1830 -3782 0
-1831 -3783 0
-1832 -3784 0
-1829 -3865 0
-1830 -3866 0
-1831 -3867 0
-1832 -3868 0
-1829 -1833 0
-1830 -1834 0
-1831 -1835 0
-1832 -1836 0
-1829 -1837 0
-1830 -1838 0
-1831 -1839 0
-1832 -1840 0
-1829 -5937 0
-1830 -5938 0
-1831 -5939 0
-1832 -5940 0
-1829 -1849 0
-1830 -1850 0
-1831 -1851 0
-1832 -1852 0
-1829 -1913 0
-1830 -1914 0
-1831 -1915 0
-1832 -1916 0
-1829 -6113 0
-1830 -6114 0
-1831 -6115 0
-1832 -6116 0
-1833 -3869 0
-1834 -3870 0
-1835 -3871 0
-1836 -3872 0
-1833 -3137 0
-1834 -3138 0
-1835 -3139 0
-1836 -3140 0
-1833 -3781 0
-1834 -3782 0
-1835 -3783 0
-1836 -3784 0
-1833 -3273 0
-1834 -3274 0
-1835 -3275 0
-1836 -3276 0
-1833 -3029 0
-1834 -3030 0
-1835 -3031 0
-1836 -3032 0
-1833 -3049 0
-1834 -3050 0
-1835 -3051 0
-1836 -3052 0
-1833 -2929 0
-1834 -2930 0
-1835 -2931 0
-1836 -2932 0
-1833 -1917 0
-1834 -1918 0
-1835 -1919 0
-1836 -1920 0
-1837 -2949 0
-1838 -2950 0
-1839 -2951 0
-1840 -2952 0
-1837 -3685 0
-1838 -3686 0
-1839 -3687 0
-1840 -3688 0
-1837 -3485 0
-1838 -3486 0
-1839 -3487 0
-1840 -3488 0
-1837 -3873 0
-1838 -3874 0
-1839 -3875 0
-1840 -3876 0
-1837 -2093 0
-1838 -2094 0
-1839 -2095 0
-1840 -2096 0
-1837 -3505 0
-1838 -3506 0
-1839 -3507 0
-1840 -3508 0
-1837 -5989 0
-1838 -5990 0
-1839 -5991 0
-1840 -5992 0
-1837 -3145 0
-1838 -3146 0
-1839 -3147 0
-1840 -3148 0
-1837 -3041 0
-1838 -3042 0
-1839 -3043 0
-1840 -3044 0
-1841 -1925 0
-1842 -1926 0
-1843 -1927 0
-1844 -1928 0
-1841 -3205 0
-1842 -3206 0
-1843 -3207 0
-1844 -3208 0
-1841 -5273 0
-1842 -5274 0
-1843 -5275 0
-1844 -5276 0
-1841 -5645 0
-1842 -5646 0
-1843 -5647 0
-1844 -5648 0
-1841 -2085 0
-1842 -2086 0
-1843 -2087 0
-1844 -2088 0
-1841 -4009 0
-1842 -4010 0
-1843 -4011 0
-1844 -4012 0
-1841 -4141 0
-1842 -4142 0
-1843 -4143 0
-1844 -4144 0
-1841 -4657 0
-1842 -4658 0
-1843 -4659 0
-1844 -4660 0
-1841 -2753 0
-1842 -2754 0
-1843 -2755 0
-1844 -2756 0
-1841 -3785 0
-1842 -3786 0
-1843 -3787 0
-1844 -3788 0
-1845 -3077 0
-1846 -3078 0
-1847 -3079 0
-1848 -3080 0
-1845 -4145 0
-1846 -4146 0
-1847 -4147 0
-1848 -4148 0
-1845 -2105 0
-1846 -2106 0
-1847 -2107 0
-1848 -2108 0
-1845 -4673 0
-1846 -4674 0
-1847 -4675 0
-1848 -4676 0
-1845 -3165 0
-1846 -3166 0
-1847 -3167 0
-1848 -3168 0
-1845 -3725 0
-1846 -3726 0
-1847 -3727 0
-1848 -3728 0
-1845 -3221 0
-1846 -3222 0
-1847 -3223 0
-1848 -3224 0
-1845 -2753 0
-1846 -2754 0
-1847 -2755 0
-1848 -2756 0
-1845 -2761 0
-1846 -2762 0
-1847 -2763 0
-1848 -2764 0
-1845 -3793 0
-1846 -3794 0
-1847 -3795 0
-1848 -3796 0
-1845 -4369 0
-1846 -4370 0
-1847 -4371 0
-1848 -4372 0
-1845 -1849 0
-1846 -1850 0
-1847 -1851 0
-1848 -1852 0
-1845 -2889 0
-1846 -2890 0
-1847 -2891 0
-1848 -2892 0
-1845 -6017 0
-1846 -6018 0
-1847 -6019 0
-1848 -6020 0
-1845 -1941 0
-1846 -1942 0
-1847 -1943 0
-1848 -1944 0
-1845 -4517 0
-1846 -4518 0
-1847 -4519 0
-1848 -4520 0
-1845 -5049 0
-1846 -5050 0
-1847 -5051 0
-1848 -5052 0
-1845 -3517 0
-1846 -3518 0
-1847 -3519 0
-1848 -3520 0
-1845 -5069 0
-1846 -5070 0
-1847 -5071 0
-1848 -5072 0
-1849 -2101 0
-1850 -2102 0
-1851 -2103 0
-1852 -2104 0
-1849 -4677 0
-1850 -4678 0
-1851 -4679 0
-1852 -4680 0
-1849 -2641 0
-1850 -2642 0
-1851 -2643 0
-1852 -2644 0
-1849 -3169 0
-1850 -3170 0
-1851 -3171 0
-1852 -3172 0
-1849 -3721 0
-1850 -3722 0
-1851 -3723 0
-1852 -3724 0
-1849 -3225 0
-1850 -3226 0
-1851 -3227 0
-1852 -3228 0
-1849 -3793 0
-1850 -3794 0
-1851 -3795 0
-1852 -3796 0
-1849 -3797 0
-1850 -3798 0
-1851 -3799 0
-1852 -3800 0
-1849 -4333 0
-1850 -4334 0
-1851 -4335 0
-1852 -4336 0
-1849 -3881 0
-1850 -3882 0
-1851 -3883 0
-1852 -3884 0
-1849 -2893 0
-1850 -2894 0
-1851 -2895 0
-1852 -2896 0
-1849 -1945 0
-1850 -1946 0
-1851 -1947 0
-1852 -1948 0
-1849 -4521 0
-1850 -4522 0
-1851 -4523 0
-1852 -4524 0
-1849 -3509 0
-1850 -3510 0
-1851 -3511 0
-1852 -3512 0
-1849 -5053 0
-1850 -5054 0
-1851 -5055 0
-1852 -5056 0
-1853 -3093 0
-1854 -3094 0
-1855 -3095 0
-1856 -3096 0
-1853 -4149 0
-1854 -4150 0
-1855 -4151 0
-1856 -4152 0
-1853 -2105 0
-1854 -2106 0
-1855 -2107 0
-1856 -2108 0
-1853 -3145 0
-1854 -3146 0
-1855 -3147 0
-1856 -3148 0
-1853 -3165 0
-1854 -3166 0
-1855 -3167 0
-1856 -3168 0
-1853 -4701 0
-1854 -4702 0
-1855 -4703 0
-1856 -4704 0
-1853 -3209 0
-1854 -3210 0
-1855 -3211 0
-1856 -3212 0
-1853 -5293 0
-1854 -5294 0
-1855 -5295 0
-1856 -5296 0
-1853 -2741 0
-1854 -2742 0
-1855 -2743 0
-1856 -2744 0
-1853 -5317 0
-1854 -5318 0
-1855 -5319 0
-1856 -5320 0
-1853 -2805 0
-1854 -2806 0
-1855 -2807 0
-1856 -2808 0
-1853 -1857 0
-1854 -1858 0
-1855 -1859 0
-1856 -1860 0
-1853 -5061 0
-1854 -5062 0
-1855 -5063 0
-1856 -5064 0
-1853 -5069 0
-1854 -5070 0
-1855 -5071 0
-1856 -5072 0
-1857 -3101 0
-1858 -3102 0
-1859 -3103 0
-1860 -3104 0
-1857 -5673 0
-1858 -5674 0
-1859 -5675 0
-1860 -5676 0
-1857 -3629 0
-1858 -3630 0
-1859 -3631 0
-1860 -3632 0
-1857 -3649 0
-1858 -3650 0
-1859 -3651 0
-1860 -3652 0
-1857 -3153 0
-1858 -3154 0
-1859 -3155 0
-1860 -3156 0
-1857 -2649 0
-1858 -2650 0
-1859 -2651 0
-1860 -2652 0
-1857 -3177 0
-1858 -3178 0
-1859 -3179 0
-1860 -3180 0
-1857 -3697 0
-1858 -3698 0
-1859 -3699 0
-1860 -3700 0
-1857 -3221 0
-1858 -3222 0
-1859 -3223 0
-1860 -3224 0
-1857 -3253 0
-1858 -3254 0
-1859 -3255 0
-1860 -3256 0
-1857 -5301 0
-1858 -5302 0
-1859 -5303 0
-1860 -5304 0
-1857 -5329 0
-1858 -5330 0
-1859 -5331 0
-1860 -5332 0
-1857 -4353 0
-1858 -4354 0
-1859 -4355 0
-1860 -4356 0
-1857 -4385 0
-1858 -4386 0
-1859 -4387 0
-1860 -4388 0
-1857 -4393 0
-1858 -4394 0
-1859 -4395 0
-1860 -4396 0
-1857 -1869 0
-1858 -1870 0
-1859 -1871 0
-1860 -1872 0
-1857 -1889 0
-1858 -1890 0
-1859 -1891 0
-1860 -1892 0
-1861 -2969 0
-1862 -2970 0
-1863 -2971 0
-1864 -2972 0
-1861 -3229 0
-1862 -3230 0
-1863 -3231 0
-1864 -3232 0
-1861 -5273 0
-1862 -5274 0
-1863 -5275 0
-1864 -5276 0
-1861 -3241 0
-1862 -3242 0
-1863 -3243 0
-1864 -3244 0
-1861 -3633 0
-1862 -3634 0
-1863 -3635 0
-1864 -3636 0
-1861 -4021 0
-1862 -4022 0
-1863 -4023 0
-1864 -4024 0
-1861 -3269 0
-1862 -3270 0
-1863 -3271 0
-1864 -3272 0
-1861 -4041 0
-1862 -4042 0
-1863 -4043 0
-1864 -4044 0
-1861 -4977 0
-1862 -4978 0
-1863 -4979 0
-1864 -4980 0
-1861 -3801 0
-1862 -3802 0
-1863 -3803 0
-1864 -3804 0
-1861 -2925 0
-1862 -2926 0
-1863 -2927 0
-1864 -2928 0
-1865 -3129 0
-1866 -3130 0
-1867 -3131 0
-1868 -3132 0
-1865 -2753 0
-1866 -2754 0
-1867 -2755 0
-1868 -2756 0
-1865 -3801 0
-1866 -3802 0
-1867 -3803 0
-1868 -3804 0
-1865 -3177 0
-1866 -3178 0
-1867 -3179 0
-1868 -3180 0
-1865 -2809 0
-1866 -2810 0
-1867 -2811 0
-1868 -2812 0
-1869 -2977 0
-1870 -2978 0
-1871 -2979 0
-1872 -2980 0
-1869 -3245 0
-1870 -3246 0
-1871 -3247 0
-1872 -3248 0
-1869 -5317 0
-1870 -5318 0
-1871 -5319 0
-1872 -5320 0
-1869 -2761 0
-1870 -2762 0
-1871 -2763 0
-1872 -2764 0
-1869 -3145 0
-1870 -3146 0
-1871 -3147 0
-1872 -3148 0
-1869 -3277 0
-1870 -3278 0
-1871 -3279 0
-1872 -3280 0
-1869 -3805 0
-1870 -3806 0
-1871 -3807 0
-1872 -3808 0
-1873 -3093 0
-1874 -3094 0
-1875 -3095 0
-1876 -3096 0
-1873 -3885 0
-1874 -3886 0
-1875 -3887 0
-1876 -3888 0
-1873 -4805 0
-1874 -4806 0
-1875 -4807 0
-1876 -4808 0
-1877 -5525 0
-1878 -5526 0
-1879 -5527 0
-1880 -5528 0
-1877 -1953 0
-1878 -1954 0
-1879 -1955 0
-1880 -1956 0
-1877 -3117 0
-1878 -3118 0
-1879 -3119 0
-1880 -3120 0
-1877 -4401 0
-1878 -4402 0
-1879 -4403 0
-1880 -4404 0
-1877 -3893 0
-1878 -3894 0
-1879 -3895 0
-1880 -3896 0
-1877 -5293 0
-1878 -5294 0
-1879 -5295 0
-1880 -5296 0
-1877 -3521 0
-1878 -3522 0
-1879 -3523 0
-1880 -3524 0
-1877 -2921 0
-1878 -2922 0
-1879 -2923 0
-1880 -2924 0
-1877 -1901 0
-1878 -1902 0
-1879 -1903 0
-1880 -1904 0
-1881 -3093 0
-1882 -3094 0
-1883 -3095 0
-1884 -3096 0
-1881 -5681 0
-1882 -5682 0
-1883 -5683 0
-1884 -5684 0
-1881 -2109 0
-1882 -2110 0
-1883 -2111 0
-1884 -2112 0
-1881 -2157 0
-1882 -2158 0
-1883 -2159 0
-1884 -2160 0
-1881 -3193 0
-1882 -3194 0
-1883 -3195 0
-1884 -3196 0
-1881 -4781 0
-1882 -4782 0
-1883 -4783 0
-1884 -4784 0
-1881 -4821 0
-1882 -4822 0
-1883 -4823 0
-1884 -4824 0
-1881 -2817 0
-1882 -2818 0
-1883 -2819 0
-1884 -2820 0
-1881 -3897 0
-1882 -3898 0
-1883 -3899 0
-1884 -3900 0
-1881 -2929 0
-1882 -2930 0
-1883 -2931 0
-1884 -2932 0
-1881 -1957 0
-1882 -1958 0
-1883 -1959 0
-1884 -1960 0
-1881 -1989 0
-1882 -1990 0
-1883 -1991 0
-1884 -1992 0
-1881 -3525 0
-1882 -3526 0
-1883 -3527 0
-1884 -3528 0
-1881 -2013 0
-1882 -2014 0
-1883 -2015 0
-1884 -2016 0
-1881 -5089 0
-1882 -5090 0
-1883 -5091 0
-1884 -5092 0
-1885 -2053 0
-1886 -2054 0
-1887 -2055 0
-1888 -2056 0
-1885 -3201 0
-1886 -3202 0
-1887 -3203 0
-1888 -3204 0
-1885 -3085 0
-1886 -3086 0
-1887 -3087 0
-1888 -3088 0
-1885 -5685 0
-1886 -5686 0
-1887 -5687 0
-1888 -5688 0
-1885 -3137 0
-1886 -3138 0
-1887 -3139 0
-1888 -3140 0
-1885 -5077 0
-1886 -5078 0
-1887 -5079 0
-1888 -5080 0
-1885 -4825 0
-1886 -4826 0
-1887 -4827 0
-1888 -4828 0
-1885 -2017 0
-1886 -2018 0
-1887 -2019 0
-1888 -2020 0
-1885 -3813 0
-1886 -3814 0
-1887 -3815 0
-1888 -3816 0
-1885 -3309 0
-1886 -3310 0
-1887 -3311 0
-1888 -3312 0
-1885 -1913 0
-1886 -1914 0
-1887 -1915 0
-1888 -1916 0
-1889 -3093 0
-1890 -3094 0
-1891 -3095 0
-1892 -3096 0
-1889 -5145 0
-1890 -5146 0
-1891 -5147 0
-1892 -5148 0
-1889 -3145 0
-1890 -3146 0
-1891 -3147 0
-1892 -3148 0
-1889 -2125 0
-1890 -2126 0
-1891 -2127 0
-1892 -2128 0
-1889 -3253 0
-1890 -3254 0
-1891 -3255 0
-1892 -3256 0
-1889 -3769 0
-1890 -3770 0
-1891 -3771 0
-1892 -3772 0
-1889 -2777 0
-1890 -2778 0
-1891 -2779 0
-1892 -2780 0
-1889 -2785 0
-1890 -2786 0
-1891 -2787 0
-1892 -2788 0
-1889 -3285 0
-1890 -3286 0
-1891 -3287 0
-1892 -3288 0
-1889 -3825 0
-1890 -3826 0
-1891 -3827 0
-1892 -3828 0
-1889 -2985 0
-1890 -2986 0
-1891 -2987 0
-1892 -2988 0
-1889 -3529 0
-1890 -3530 0
-1891 -3531 0
-1892 -3532 0
-1889 -3533 0
-1890 -3534 0
-1891 -3535 0
-1892 -3536 0
-1893 -5157 0
-1894 -5158 0
-1895 -5159 0
-1896 -5160 0
-1893 -3113 0
-1894 -3114 0
-1895 -3115 0
-1896 -3116 0
-1893 -5097 0
-1894 -5098 0
-1895 -5099 0
-1896 -5100 0
-1893 -5689 0
-1894 -5690 0
-1895 -5691 0
-1896 -5692 0
-1893 -2117 0
-1894 -2118 0
-1895 -2119 0
-1896 -2120 0
-1893 -3157 0
-1894 -3158 0
-1895 -3159 0
-1896 -3160 0
-1893 -2665 0
-1894 -2666 0
-1895 -2667 0
-1896 -2668 0
-1893 -5737 0
-1894 -5738 0
-1895 -5739 0
-1896 -5740 0
-1893 -2165 0
-1894 -2166 0
-1895 -2167 0
-1896 -2168 0
-1893 -3193 0
-1894 -3194 0
-1895 -3195 0
-1896 -3196 0
-1893 -3197 0
-1894 -3198 0
-1895 -3199 0
-1896 -3200 0
-1893 -2789 0
-1894 -2790 0
-1895 -2791 0
-1896 -2792 0
-1893 -4413 0
-1894 -4414 0
-1895 -4415 0
-1896 -4416 0
-1893 -1897 0
-1894 -1898 0
-1895 -1899 0
-1896 -1900 0
-1893 -1905 0
-1894 -1906 0
-1895 -1907 0
-1896 -1908 0
-1893 -2025 0
-1894 -2026 0
-1895 -2027 0
-1896 -2028 0
-1897 -2061 0
-1898 -2062 0
-1899 -2063 0
-1900 -2064 0
-1897 -2573 0
-1898 -2574 0
-1899 -2575 0
-1900 -2576 0
-1897 -3117 0
-1898 -3118 0
-1899 -3119 0
-1900 -3120 0
-1897 -5685 0
-1898 -5686 0
-1899 -5687 0
-1900 -5688 0
-1897 -4169 0
-1898 -4170 0
-1899 -4171 0
-1900 -4172 0
-1897 -2657 0
-1898 -2658 0
-1899 -2659 0
-1900 -2660 0
-1897 -2669 0
-1898 -2670 0
-1899 -2671 0
-1900 -2672 0
-1897 -3201 0
-1898 -3202 0
-1899 -3203 0
-1900 -3204 0
-1897 -4833 0
-1898 -4834 0
-1899 -4835 0
-1900 -4836 0
-1897 -2409 0
-1898 -2410 0
-1899 -2411 0
-1900 -2412 0
-1897 -3541 0
-1898 -3542 0
-1899 -3543 0
-1900 -3544 0
-1897 -5081 0
-1898 -5082 0
-1899 -5083 0
-1900 -5084 0
-1901 -3109 0
-1902 -3110 0
-1903 -3111 0
-1904 -3112 0
-1901 -5165 0
-1902 -5166 0
-1903 -5167 0
-1904 -5168 0
-1901 -3125 0
-1902 -3126 0
-1903 -3127 0
-1904 -3128 0
-1901 -3161 0
-1902 -3162 0
-1903 -3163 0
-1904 -3164 0
-1901 -3689 0
-1902 -3690 0
-1903 -3691 0
-1904 -3692 0
-1901 -5741 0
-1902 -5742 0
-1903 -5743 0
-1904 -5744 0
-1901 -2673 0
-1902 -2674 0
-1903 -2675 0
-1904 -2676 0
-1901 -3205 0
-1902 -3206 0
-1903 -3207 0
-1904 -3208 0
-1901 -4769 0
-1902 -4770 0
-1903 -4771 0
-1904 -4772 0
-1901 -5285 0
-1902 -5286 0
-1903 -5287 0
-1904 -5288 0
-1901 -3249 0
-1902 -3250 0
-1903 -3251 0
-1904 -3252 0
-1901 -5309 0
-1902 -5310 0
-1903 -5311 0
-1904 -5312 0
-1901 -2793 0
-1902 -2794 0
-1903 -2795 0
-1904 -2796 0
-1901 -3817 0
-1902 -3818 0
-1903 -3819 0
-1904 -3820 0
-1901 -2805 0
-1902 -2806 0
-1903 -2807 0
-1904 -2808 0
-1901 -3821 0
-1902 -3822 0
-1903 -3823 0
-1904 -3824 0
-1901 -3837 0
-1902 -3838 0
-1903 -3839 0
-1904 -3840 0
-1901 -2833 0
-1902 -2834 0
-1903 -2835 0
-1904 -2836 0
-1901 -3917 0
-1902 -3918 0
-1903 -3919 0
-1904 -3920 0
-1901 -1905 0
-1902 -1906 0
-1903 -1907 0
-1904 -1908 0
-1901 -1909 0
-1902 -1910 0
-1903 -1911 0
-1904 -1912 0
-1901 -5509 0
-1902 -5510 0
-1903 -5511 0
-1904 -5512 0
-1901 -1929 0
-1902 -1930 0
-1903 -1931 0
-1904 -1932 0
-1901 -5533 0
-1902 -5534 0
-1903 -5535 0
-1904 -5536 0
-1901 -5549 0
-1902 -5550 0
-1903 -5551 0
-1904 -5552 0
-1901 -3537 0
-1902 -3538 0
-1903 -3539 0
-1904 -3540 0
-1901 -2029 0
-1902 -2030 0
-1903 -2031 0
-1904 -2032 0
-1901 -5109 0
-1902 -5110 0
-1903 -5111 0
-1904 -5112 0
-1905 -5169 0
-1906 -5170 0
-1907 -5171 0
-1908 -5172 0
-1905 -3129 0
-1906 -3130 0
-1907 -3131 0
-1908 -3132 0
-1905 -2125 0
-1906 -2126 0
-1907 -2127 0
-1908 -2128 0
-1905 -4177 0
-1906 -4178 0
-1907 -4179 0
-1908 -4180 0
-1905 -3669 0
-1906 -3670 0
-1907 -3671 0
-1908 -3672 0
-1905 -4705 0
-1906 -4706 0
-1907 -4707 0
-1908 -4708 0
-1905 -2661 0
-1906 -2662 0
-1907 -2663 0
-1908 -2664 0
-1905 -5745 0
-1906 -5746 0
-1907 -5747 0
-1908 -5748 0
-1905 -3209 0
-1906 -3210 0
-1907 -3211 0
-1908 -3212 0
-1905 -3821 0
-1906 -3822 0
-1907 -3823 0
-1908 -3824 0
-1905 -3825 0
-1906 -3826 0
-1907 -3827 0
-1908 -3828 0
-1905 -3921 0
-1906 -3922 0
-1907 -3923 0
-1908 -3924 0
-1905 -1913 0
-1906 -1914 0
-1907 -1915 0
-1908 -1916 0
-1905 -5513 0
-1906 -5514 0
-1907 -5515 0
-1908 -5516 0
-1905 -3545 0
-1906 -3546 0
-1907 -3547 0
-1908 -3548 0
-1905 -3561 0
-1906 -3562 0
-1907 -3563 0
-1908 -3564 0
-1905 -2033 0
-1906 -2034 0
-1907 -2035 0
-1908 -2036 0
-1905 -5113 0
-1906 -5114 0
-1907 -5115 0
-1908 -5116 0
-1909 -5093 0
-1910 -5094 0
-1911 -5095 0
-1912 -5096 0
-1909 -2593 0
-1910 -2594 0
-1911 -2595 0
-1912 -2596 0
-1909 -3117 0
-1910 -3118 0
-1911 -3119 0
-1912 -3120 0
-1909 -6117 0
-1910 -6118 0
-1911 -6119 0
-1912 -6120 0
-1909 -3677 0
-1910 -3678 0
-1911 -3679 0
-1912 -3680 0
-1909 -3169 0
-1910 -3170 0
-1911 -3171 0
-1912 -3172 0
-1909 -3693 0
-1910 -3694 0
-1911 -3695 0
-1912 -3696 0
-1909 -3217 0
-1910 -3218 0
-1911 -3219 0
-1912 -3220 0
-1909 -5293 0
-1910 -5294 0
-1911 -5295 0
-1912 -5296 0
-1909 -5317 0
-1910 -5318 0
-1911 -5319 0
-1912 -5320 0
-1909 -3833 0
-1910 -3834 0
-1911 -3835 0
-1912 -3836 0
-1909 -2841 0
-1910 -2842 0
-1911 -2843 0
-1912 -2844 0
-1909 -4401 0
-1910 -4402 0
-1911 -4403 0
-1912 -4404 0
-1909 -3925 0
-1910 -3926 0
-1911 -3927 0
-1912 -3928 0
-1909 -1913 0
-1910 -1914 0
-1911 -1915 0
-1912 -1916 0
-1909 -1941 0
-1910 -1942 0
-1911 -1943 0
-1912 -1944 0
-1909 -2965 0
-1910 -2966 0
-1911 -2967 0
-1912 -2968 0
-1909 -1973 0
-1910 -1974 0
-1911 -1975 0
-1912 -1976 0
-1909 -4069 0
-1910 -4070 0
-1911 -4071 0
-1912 -4072 0
-1909 -5105 0
-1910 -5106 0
-1911 -5107 0
-1912 -5108 0
-1913 -3121 0
-1914 -3122 0
-1915 -3123 0
-1916 -3124 0
-1913 -5177 0
-1914 -5178 0
-1915 -5179 0
-1916 -5180 0
-1913 -3649 0
-1914 -3650 0
-1915 -3651 0
-1916 -3652 0
-1913 -3141 0
-1914 -3142 0
-1915 -3143 0
-1916 -3144 0
-1913 -3673 0
-1914 -3674 0
-1915 -3675 0
-1916 -3676 0
-1913 -3173 0
-1914 -3174 0
-1915 -3175 0
-1916 -3176 0
-1913 -2673 0
-1914 -2674 0
-1915 -2675 0
-1916 -2676 0
-1913 -3697 0
-1914 -3698 0
-1915 -3699 0
-1916 -3700 0
-1913 -5753 0
-1914 -5754 0
-1915 -5755 0
-1916 -5756 0
-1913 -2173 0
-1914 -2174 0
-1915 -2175 0
-1916 -2176 0
-1913 -3221 0
-1914 -3222 0
-1915 -3223 0
-1916 -3224 0
-1913 -5297 0
-1914 -5298 0
-1915 -5299 0
-1916 -5300 0
-1913 -3253 0
-1914 -3254 0
-1915 -3255 0
-1916 -3256 0
-1913 -5321 0
-1914 -5322 0
-1915 -5323 0
-1916 -5324 0
-1913 -3293 0
-1914 -3294 0
-1915 -3295 0
-1916 -3296 0
-1913 -2793 0
-1914 -2794 0
-1915 -2795 0
-1916 -2796 0
-1913 -2797 0
-1914 -2798 0
-1915 -2799 0
-1916 -2800 0
-1913 -3833 0
-1914 -3834 0
-1915 -3835 0
-1916 -3836 0
-1913 -2845 0
-1914 -2846 0
-1915 -2847 0
-1916 -2848 0
-1913 -3929 0
-1914 -3930 0
-1915 -3931 0
-1916 -3932 0
-1913 -1917 0
-1914 -1918 0
-1915 -1919 0
-1916 -1920 0
-1913 -2429 0
-1914 -2430 0
-1915 -2431 0
-1916 -2432 0
-1913 -5517 0
-1914 -5518 0
-1915 -5519 0
-1916 -5520 0
-1913 -1945 0
-1914 -1946 0
-1915 -1947 0
-1916 -1948 0
-1913 -5537 0
-1914 -5538 0
-1915 -5539 0
-1916 -5540 0
-1913 -3545 0
-1914 -3546 0
-1915 -3547 0
-1916 -3548 0
-1913 -3565 0
-1914 -3566 0
-1915 -3567 0
-1916 -3568 0
-1913 -2045 0
-1914 -2046 0
-1915 -2047 0
-1916 -2048 0
-1917 -5521 0
-1918 -5522 0
-1919 -5523 0
-1920 -5524 0
-1917 -3225 0
-1918 -3226 0
-1919 -3227 0
-1920 -3228 0
-1917 -3549 0
-1918 -3550 0
-1919 -3551 0
-1920 -3552 0
-1917 -3145 0
-1918 -3146 0
-1919 -3147 0
-1920 -3148 0
-1921 -3841 0
-1922 -3842 0
-1923 -3843 0
-1924 -3844 0
-1921 -2181 0
-1922 -2182 0
-1923 -2183 0
-1924 -2184 0
-1921 -1929 0
-1922 -1930 0
-1923 -1931 0
-1924 -1932 0
-1921 -3845 0
-1922 -3846 0
-1923 -3847 0
-1924 -3848 0
-1921 -4797 0
-1922 -4798 0
-1923 -4799 0
-1924 -4800 0
-1921 -4429 0
-1922 -4430 0
-1923 -4431 0
-1924 -4432 0
-1921 -2129 0
-1922 -2130 0
-1923 -2131 0
-1924 -2132 0
-1921 -2769 0
-1922 -2770 0
-1923 -2771 0
-1924 -2772 0
-1921 -4189 0
-1922 -4190 0
-1923 -4191 0
-1924 -4192 0
-1921 -2677 0
-1922 -2678 0
-1923 -2679 0
-1924 -2680 0
-1925 -2125 0
-1926 -2126 0
-1927 -2127 0
-1928 -2128 0
-1925 -4805 0
-1926 -4806 0
-1927 -4807 0
-1928 -4808 0
-1925 -3301 0
-1926 -3302 0
-1927 -3303 0
-1928 -3304 0
-1925 -2809 0
-1926 -2810 0
-1927 -2811 0
-1928 -2812 0
-1925 -3849 0
-1926 -3850 0
-1927 -3851 0
-1928 -3852 0
-1925 -3853 0
-1926 -3854 0
-1927 -3855 0
-1928 -3856 0
-1925 -4437 0
-1926 -4438 0
-1927 -4439 0
-1928 -4440 0
-1925 -1929 0
-1926 -1930 0
-1927 -1931 0
-1928 -1932 0
-1925 -6025 0
-1926 -6026 0
-1927 -6027 0
-1928 -6028 0
-1925 -1937 0
-1926 -1938 0
-1927 -1939 0
-1928 -1940 0
-1925 -1977 0
-1926 -1978 0
-1927 -1979 0
-1928 -1980 0
-1925 -4073 0
-1926 -4074 0
-1927 -4075 0
-1928 -4076 0
-1929 -2053 0
-1930 -2054 0
-1931 -2055 0
-1932 -2056 0
-1929 -5185 0
-1930 -5186 0
-1931 -5187 0
-1932 -5188 0
-1929 -4693 0
-1930 -4694 0
-1931 -4695 0
-1932 -4696 0
-1929 -5769 0
-1930 -5770 0
-1931 -5771 0
-1932 -5772 0
-1929 -3229 0
-1930 -3230 0
-1931 -3231 0
-1932 -3232 0
-1929 -4789 0
-1930 -4790 0
-1931 -4791 0
-1932 -4792 0
-1929 -4809 0
-1930 -4810 0
-1931 -4811 0
-1932 -4812 0
-1929 -2777 0
-1930 -2778 0
-1931 -2779 0
-1932 -2780 0
-1929 -5337 0
-1930 -5338 0
-1931 -5339 0
-1932 -5340 0
-1929 -5349 0
-1930 -5350 0
-1931 -5351 0
-1932 -5352 0
-1929 -3853 0
-1930 -3854 0
-1931 -3855 0
-1932 -3856 0
-1929 -3857 0
-1930 -3858 0
-1931 -3859 0
-1932 -3860 0
-1929 -4409 0
-1930 -4410 0
-1931 -4411 0
-1932 -4412 0
-1929 -4441 0
-1930 -4442 0
-1931 -4443 0
-1932 -4444 0
-1929 -3933 0
-1930 -3934 0
-1931 -3935 0
-1932 -3936 0
-1929 -1941 0
-1930 -1942 0
-1931 -1943 0
-1932 -1944 0
-1929 -1949 0
-1930 -1950 0
-1931 -1951 0
-1932 -1952 0
-1929 -1981 0
-1930 -1982 0
-1931 -1983 0
-1932 -1984 0
-1929 -4549 0
-1930 -4550 0
-1931 -4551 0
-1932 -4552 0
-1929 -3569 0
-1930 -3570 0
-1931 -3571 0
-1932 -3572 0
-1933 -5777 0
-1934 -5778 0
-1935 -5779 0
-1936 -5780 0
-1933 -3233 0
-1934 -3234 0
-1935 -3235 0
-1936 -3236 0
-1933 -3169 0
-1934 -3170 0
-1935 -3171 0
-1936 -3172 0
-1933 -5101 0
-1934 -5102 0
-1935 -5103 0
-1936 -5104 0
-1933 -6129 0
-1934 -6130 0
-1935 -6131 0
-1936 -6132 0
-1937 -4997 0
-1938 -4998 0
-1939 -4999 0
-1940 -5000 0
-1937 -1941 0
-1938 -1942 0
-1939 -1943 0
-1940 -1944 0
-1937 -3861 0
-1938 -3862 0
-1939 -3863 0
-1940 -3864 0
-1937 -5941 0
-1938 -5942 0
-1939 -5943 0
-1940 -5944 0
-1937 -1985 0
-1938 -1986 0
-1939 -1987 0
-1940 -1988 0
-1937 -4553 0
-1938 -4554 0
-1939 -4555 0
-1940 -4556 0
-1937 -3553 0
-1938 -3554 0
-1939 -3555 0
-1940 -3556 0
-1937 -3305 0
-1938 -3306 0
-1939 -3307 0
-1940 -3308 0
-1937 -3573 0
-1938 -3574 0
-1939 -3575 0
-1940 -3576 0
-1941 -2125 0
-1942 -2126 0
-1943 -2127 0
-1944 -2128 0
-1941 -5105 0
-1942 -5106 0
-1943 -5107 0
-1944 -5108 0
-1941 -2133 0
-1942 -2134 0
-1943 -2135 0
-1944 -2136 0
-1941 -3161 0
-1942 -3162 0
-1943 -3163 0
-1944 -3164 0
-1941 -4697 0
-1942 -4698 0
-1943 -4699 0
-1944 -4700 0
-1941 -3189 0
-1942 -3190 0
-1943 -3191 0
-1944 -3192 0
-1941 -2685 0
-1942 -2686 0
-1943 -2687 0
-1944 -2688 0
-1941 -3241 0
-1942 -3242 0
-1943 -3243 0
-1944 -3244 0
-1941 -3257 0
-1942 -3258 0
-1943 -3259 0
-1944 -3260 0
-1941 -5309 0
-1942 -5310 0
-1943 -5311 0
-1944 -5312 0
-1941 -4813 0
-1942 -4814 0
-1943 -4815 0
-1944 -4816 0
-1941 -2781 0
-1942 -2782 0
-1943 -2783 0
-1944 -2784 0
-1941 -5341 0
-1942 -5342 0
-1943 -5343 0
-1944 -5344 0
-1941 -3861 0
-1942 -3862 0
-1943 -3863 0
-1944 -3864 0
-1941 -3865 0
-1942 -3866 0
-1943 -3867 0
-1944 -3868 0
-1941 -5945 0
-1942 -5946 0
-1943 -5947 0
-1944 -5948 0
-1941 -5993 0
-1942 -5994 0
-1943 -5995 0
-1944 -5996 0
-1941 -2953 0
-1942 -2954 0
-1943 -2955 0
-1944 -2956 0
-1941 -5001 0
-1942 -5002 0
-1943 -5003 0
-1944 -5004 0
-1941 -1945 0
-1942 -1946 0
-1943 -1947 0
-1944 -1948 0
-1941 -4557 0
-1942 -4558 0
-1943 -4559 0
-1944 -4560 0
-1941 -6121 0
-1942 -6122 0
-1943 -6123 0
-1944 -6124 0
-1941 -4081 0
-1942 -4082 0
-1943 -4083 0
-1944 -4084 0
-1941 -5117 0
-1942 -5118 0
-1943 -5119 0
-1944 -5120 0
-1945 -3865 0
-1946 -3866 0
-1947 -3867 0
-1948 -3868 0
-1945 -3869 0
-1946 -3870 0
-1947 -3871 0
-1948 -3872 0
-1945 -2977 0
-1946 -2978 0
-1947 -2979 0
-1948 -2980 0
-1945 -5781 0
-1946 -5782 0
-1947 -5783 0
-1948 -5784 0
-1945 -3245 0
-1946 -3246 0
-1947 -3247 0
-1948 -3248 0
-1945 -2785 0
-1946 -2786 0
-1947 -2787 0
-1948 -2788 0
-1945 -4709 0
-1946 -4710 0
-1947 -4711 0
-1948 -4712 0
-1945 -3177 0
-1946 -3178 0
-1947 -3179 0
-1948 -3180 0
-1949 -2993 0
-1950 -2994 0
-1951 -2995 0
-1952 -2996 0
-1949 -3877 0
-1950 -3878 0
-1951 -3879 0
-1952 -3880 0
-1949 -4429 0
-1950 -4430 0
-1951 -4431 0
-1952 -4432 0
-1949 -4825 0
-1950 -4826 0
-1951 -4827 0
-1952 -4828 0
-1949 -3557 0
-1950 -3558 0
-1951 -3559 0
-1952 -3560 0
-1949 -3313 0
-1950 -3314 0
-1951 -3315 0
-1952 -3316 0
-1953 -5121 0
-1954 -5122 0
-1955 -5123 0
-1956 -5124 0
-1953 -3209 0
-1954 -3210 0
-1955 -3211 0
-1956 -3212 0
-1953 -2965 0
-1954 -2966 0
-1955 -2967 0
-1956 -2968 0
-1953 -1961 0
-1954 -1962 0
-1955 -1963 0
-1956 -1964 0
-1953 -5353 0
-1954 -5354 0
-1955 -5355 0
-1956 -5356 0
-1953 -4213 0
-1954 -4214 0
-1955 -4215 0
-1956 -4216 0
-1957 -3201 0
-1958 -3202 0
-1959 -3203 0
-1960 -3204 0
-1957 -5789 0
-1958 -5790 0
-1959 -5791 0
-1960 -5792 0
-1957 -1969 0
-1958 -1970 0
-1959 -1971 0
-1960 -1972 0
-1957 -3253 0
-1958 -3254 0
-1959 -3255 0
-1960 -3256 0
-1957 -3385 0
-1958 -3386 0
-1959 -3387 0
-1960 -3388 0
-1957 -3321 0
-1958 -3322 0
-1959 -3323 0
-1960 -3324 0
-1957 -5817 0
-1958 -5818 0
-1959 -5819 0
-1960 -5820 0
-1957 -2889 0
-1958 -2890 0
-1959 -2891 0
-1960 -2892 0
-1957 -2025 0
-1958 -2026 0
-1959 -2027 0
-1960 -2028 0
-1957 -3305 0
-1958 -3306 0
-1959 -3307 0
-1960 -3308 0
-1961 -4453 0
-1962 -4454 0
-1963 -4455 0
-1964 -4456 0
-1961 -3221 0
-1962 -3222 0
-1963 -3223 0
-1964 -3224 0
-1961 -2077 0
-1962 -2078 0
-1963 -2079 0
-1964 -2080 0
-1961 -3885 0
-1962 -3886 0
-1963 -3887 0
-1964 -3888 0
-1961 -5269 0
-1962 -5270 0
-1963 -5271 0
-1964 -5272 0
-1961 -1973 0
-1962 -1974 0
-1963 -1975 0
-1964 -1976 0
-1961 -5553 0
-1962 -5554 0
-1963 -5555 0
-1964 -5556 0
-1961 -3389 0
-1962 -3390 0
-1963 -3391 0
-1964 -3392 0
-1961 -4805 0
-1962 -4806 0
-1963 -4807 0
-1964 -4808 0
-1961 -2789 0
-1962 -2790 0
-1963 -2791 0
-1964 -2792 0
-1961 -4473 0
-1962 -4474 0
-1963 -4475 0
-1964 -4476 0
-1965 -4233 0
-1966 -4234 0
-1967 -4235 0
-1968 -4236 0
-1965 -2089 0
-1966 -2090 0
-1967 -2091 0
-1968 -2092 0
-1965 -1977 0
-1966 -1978 0
-1967 -1979 0
-1968 -1980 0
-1965 -3893 0
-1966 -3894 0
-1967 -3895 0
-1968 -3896 0
-1965 -5213 0
-1966 -5214 0
-1967 -5215 0
-1968 -5216 0
-1965 -4477 0
-1966 -4478 0
-1967 -4479 0
-1968 -4480 0
-1965 -3325 0
-1966 -3326 0
-1967 -3327 0
-1968 -3328 0
-1969 -2689 0
-1970 -2690 0
-1971 -2691 0
-1972 -2692 0
-1969 -3221 0
-1970 -3222 0
-1971 -3223 0
-1972 -3224 0
-1969 -2237 0
-1970 -2238 0
-1971 -2239 0
-1972 -2240 0
-1969 -3897 0
-1970 -3898 0
-1971 -3899 0
-1972 -3900 0
-1969 -4821 0
-1970 -4822 0
-1971 -4823 0
-1972 -4824 0
-1969 -2149 0
-1970 -2150 0
-1971 -2151 0
-1972 -2152 0
-1969 -2929 0
-1970 -2930 0
-1971 -2931 0
-1972 -2932 0
-1973 -2601 0
-1974 -2602 0
-1975 -2603 0
-1976 -2604 0
-1973 -2101 0
-1974 -2102 0
-1975 -2103 0
-1976 -2104 0
-1973 -5229 0
-1974 -5230 0
-1975 -5231 0
-1976 -5232 0
-1973 -3209 0
-1974 -3210 0
-1975 -3211 0
-1976 -3212 0
-1973 -4245 0
-1974 -4246 0
-1975 -4247 0
-1976 -4248 0
-1973 -3229 0
-1974 -3230 0
-1975 -3231 0
-1976 -3232 0
-1973 -3245 0
-1974 -3246 0
-1975 -3247 0
-1976 -3248 0
-1973 -2241 0
-1974 -2242 0
-1975 -2243 0
-1976 -2244 0
-1973 -5353 0
-1974 -5354 0
-1975 -5355 0
-1976 -5356 0
-1973 -5365 0
-1974 -5366 0
-1975 -5367 0
-1976 -5368 0
-1973 -3333 0
-1974 -3334 0
-1975 -3335 0
-1976 -3336 0
-1973 -3901 0
-1974 -3902 0
-1975 -3903 0
-1976 -3904 0
-1973 -3557 0
-1974 -3558 0
-1975 -3559 0
-1976 -3560 0
-1973 -2989 0
-1974 -2990 0
-1975 -2991 0
-1976 -2992 0
-1973 -2993 0
-1974 -2994 0
-1975 -2995 0
-1976 -2996 0
-1977 -3593 0
-1978 -3594 0
-1979 -3595 0
-1980 -3596 0
-1977 -3361 0
-1978 -3362 0
-1979 -3363 0
-1980 -3364 0
-1977 -4257 0
-1978 -4258 0
-1979 -4259 0
-1980 -4260 0
-1977 -1981 0
-1978 -1982 0
-1979 -1983 0
-1980 -1984 0
-1977 -1985 0
-1978 -1986 0
-1979 -1987 0
-1980 -1988 0
-1977 -3913 0
-1978 -3914 0
-1979 -3915 0
-1980 -3916 0
-1977 -3917 0
-1978 -3918 0
-1979 -3919 0
-1980 -3920 0
-1977 -5565 0
-1978 -5566 0
-1979 -5567 0
-1980 -5568 0
-1981 -3597 0
-1982 -3598 0
-1983 -3599 0
-1984 -3600 0
-1981 -5533 0
-1982 -5534 0
-1983 -5535 0
-1984 -5536 0
-1981 -4769 0
-1982 -4770 0
-1983 -4771 0
-1984 -4772 0
-1981 -5357 0
-1982 -5358 0
-1983 -5359 0
-1984 -5360 0
-1981 -3917 0
-1982 -3918 0
-1983 -3919 0
-1984 -3920 0
-1981 -3921 0
-1982 -3922 0
-1983 -3923 0
-1984 -3924 0
-1981 -4845 0
-1982 -4846 0
-1983 -4847 0
-1984 -4848 0
-1981 -4721 0
-1982 -4722 0
-1983 -4723 0
-1984 -4724 0
-1981 -2805 0
-1982 -2806 0
-1983 -2807 0
-1984 -2808 0
-1985 -4261 0
-1986 -4262 0
-1987 -4263 0
-1988 -4264 0
-1985 -3369 0
-1986 -3370 0
-1987 -3371 0
-1988 -3372 0
-1985 -3925 0
-1986 -3926 0
-1987 -3927 0
-1988 -3928 0
-1985 -4601 0
-1986 -4602 0
-1987 -4603 0
-1988 -4604 0
-1985 -4477 0
-1986 -4478 0
-1987 -4479 0
-1988 -4480 0
-1989 -4501 0
-1990 -4502 0
-1991 -4503 0
-1992 -4504 0
-1989 -1993 0
-1990 -1994 0
-1991 -1995 0
-1992 -1996 0
-1989 -2889 0
-1990 -2890 0
-1991 -2891 0
-1992 -2892 0
-1989 -3025 0
-1990 -3026 0
-1991 -3027 0
-1992 -3028 0
-1989 -3657 0
-1990 -3658 0
-1991 -3659 0
-1992 -3660 0
-1989 -3297 0
-1990 -3298 0
-1991 -3299 0
-1992 -3300 0
-1989 -2025 0
-1990 -2026 0
-1991 -2027 0
-1992 -2028 0
-1989 -2545 0
-1990 -2546 0
-1991 -2547 0
-1992 -2548 0
-1993 -2189 0
-1994 -2190 0
-1995 -2191 0
-1996 -2192 0
-1993 -4497 0
-1994 -4498 0
-1995 -4499 0
-1996 -4500 0
-1993 -2709 0
-1994 -2710 0
-1995 -2711 0
-1996 -2712 0
-1993 -3037 0
-1994 -3038 0
-1995 -3039 0
-1996 -3040 0
-1993 -2609 0
-1994 -2610 0
-1995 -2611 0
-1996 -2612 0
-1993 -3005 0
-1994 -3006 0
-1995 -3007 0
-1996 -3008 0
-1993 -2001 0
-1994 -2002 0
-1995 -2003 0
-1996 -2004 0
-1993 -2897 0
-1994 -2898 0
-1995 -2899 0
-1996 -2900 0
-1993 -2033 0
-1994 -2034 0
-1995 -2035 0
-1996 -2036 0
-1993 -2549 0
-1994 -2550 0
-1995 -2551 0
-1996 -2552 0
-1993 -6009 0
-1994 -6010 0
-1995 -6011 0
-1996 -6012 0
-1997 -6017 0
-1998 -6018 0
-1999 -6019 0
-2000 -6020 0
-1997 -5145 0
-1998 -5146 0
-1999 -5147 0
-2000 -5148 0
-1997 -5169 0
-1998 -5170 0
-1999 -5171 0
-2000 -5172 0
-1997 -3261 0
-1998 -3262 0
-1999 -3263 0
-2000 -3264 0
-1997 -2237 0
-1998 -2238 0
-1999 -2239 0
-2000 -2240 0
-1997 -3049 0
-1998 -3050 0
-1999 -3051 0
-2000 -3052 0
-1997 -3449 0
-1998 -3450 0
-1999 -3451 0
-2000 -3452 0
-2001 -4361 0
-2002 -4362 0
-2003 -4363 0
-2004 -4364 0
-2001 -4501 0
-2002 -4502 0
-2003 -4503 0
-2004 -4504 0
-2001 -3097 0
-2002 -3098 0
-2003 -3099 0
-2004 -3100 0
-2001 -3825 0
-2002 -3826 0
-2003 -3827 0
-2004 -3828 0
-2005 -3081 0
-2006 -3082 0
-2007 -3083 0
-2008 -3084 0
-2005 -5153 0
-2006 -5154 0
-2007 -5155 0
-2008 -5156 0
-2005 -5713 0
-2006 -5714 0
-2007 -5715 0
-2008 -5716 0
-2005 -3713 0
-2006 -3714 0
-2007 -3715 0
-2008 -3716 0
-2005 -2221 0
-2006 -2222 0
-2007 -2223 0
-2008 -2224 0
-2005 -4277 0
-2006 -4278 0
-2007 -4279 0
-2008 -4280 0
-2005 -3285 0
-2006 -3286 0
-2007 -3287 0
-2008 -3288 0
-2005 -4517 0
-2006 -4518 0
-2007 -4519 0
-2008 -4520 0
-2005 -3005 0
-2006 -3006 0
-2007 -3007 0
-2008 -3008 0
-2005 -2009 0
-2006 -2010 0
-2007 -2011 0
-2008 -2012 0
-2005 -2025 0
-2006 -2026 0
-2007 -2027 0
-2008 -2028 0
-2009 -3585 0
-2010 -3586 0
-2011 -3587 0
-2012 -3588 0
-2009 -3093 0
-2010 -3094 0
-2011 -3095 0
-2012 -3096 0
-2009 -5165 0
-2010 -5166 0
-2011 -5167 0
-2012 -5168 0
-2009 -2157 0
-2010 -2158 0
-2011 -2159 0
-2012 -2160 0
-2009 -4717 0
-2010 -4718 0
-2011 -4719 0
-2012 -4720 0
-2009 -3737 0
-2010 -3738 0
-2011 -3739 0
-2012 -3740 0
-2009 -3741 0
-2010 -3742 0
-2011 -3743 0
-2012 -3744 0
-2009 -2233 0
-2010 -2234 0
-2011 -2235 0
-2012 -2236 0
-2009 -2749 0
-2010 -2750 0
-2011 -2751 0
-2012 -2752 0
-2009 -3265 0
-2010 -3266 0
-2011 -3267 0
-2012 -3268 0
-2009 -4285 0
-2010 -4286 0
-2011 -4287 0
-2012 -4288 0
-2009 -5393 0
-2010 -5394 0
-2011 -5395 0
-2012 -5396 0
-2009 -2881 0
-2010 -2882 0
-2011 -2883 0
-2012 -2884 0
-2009 -2893 0
-2010 -2894 0
-2011 -2895 0
-2012 -2896 0
-2009 -3977 0
-2010 -3978 0
-2011 -3979 0
-2012 -3980 0
-2009 -4505 0
-2010 -4506 0
-2011 -4507 0
-2012 -4508 0
-2009 -4525 0
-2010 -4526 0
-2011 -4527 0
-2012 -4528 0
-2009 -2013 0
-2010 -2014 0
-2011 -2015 0
-2012 -2016 0
-2009 -2017 0
-2010 -2018 0
-2011 -2019 0
-2012 -2020 0
-2009 -2033 0
-2010 -2034 0
-2011 -2035 0
-2012 -2036 0
-2013 -3713 0
-2014 -3714 0
-2015 -3715 0
-2016 -3716 0
-2013 -5137 0
-2014 -5138 0
-2015 -5139 0
-2016 -5140 0
-2013 -3097 0
-2014 -3098 0
-2015 -3099 0
-2016 -3100 0
-2013 -5169 0
-2014 -5170 0
-2015 -5171 0
-2016 -5172 0
-2013 -2237 0
-2014 -2238 0
-2015 -2239 0
-2016 -2240 0
-2013 -3009 0
-2014 -3010 0
-2015 -3011 0
-2016 -3012 0
-2013 -5181 0
-2014 -5182 0
-2015 -5183 0
-2016 -5184 0
-2013 -2037 0
-2014 -2038 0
-2015 -2039 0
-2016 -2040 0
-2017 -3585 0
-2018 -3586 0
-2019 -3587 0
-2020 -3588 0
-2017 -3337 0
-2018 -3338 0
-2019 -3339 0
-2020 -3340 0
-2017 -3989 0
-2018 -3990 0
-2019 -3991 0
-2020 -3992 0
-2017 -3101 0
-2018 -3102 0
-2019 -3103 0
-2020 -3104 0
-2017 -4777 0
-2018 -4778 0
-2019 -4779 0
-2020 -4780 0
-2017 -2889 0
-2018 -2890 0
-2019 -2891 0
-2020 -2892 0
-2017 -2641 0
-2018 -2642 0
-2019 -2643 0
-2020 -2644 0
-2017 -3453 0
-2018 -3454 0
-2019 -3455 0
-2020 -3456 0
-2017 -3057 0
-2018 -3058 0
-2019 -3059 0
-2020 -3060 0
-2017 -2045 0
-2018 -2046 0
-2019 -2047 0
-2020 -2048 0
-2021 -5381 0
-2022 -5382 0
-2023 -5383 0
-2024 -5384 0
-2021 -2709 0
-2022 -2710 0
-2023 -2711 0
-2024 -2712 0
-2021 -3353 0
-2022 -3354 0
-2023 -3355 0
-2024 -3356 0
-2021 -2981 0
-2022 -2982 0
-2023 -2983 0
-2024 -2984 0
-2021 -3113 0
-2022 -3114 0
-2023 -3115 0
-2024 -3116 0
-2021 -4289 0
-2022 -4290 0
-2023 -4291 0
-2024 -4292 0
-2021 -2029 0
-2022 -2030 0
-2023 -2031 0
-2024 -2032 0
-2021 -4817 0
-2022 -4818 0
-2023 -4819 0
-2024 -4820 0
-2021 -4853 0
-2022 -4854 0
-2023 -4855 0
-2024 -4856 0
-2021 -2917 0
-2022 -2918 0
-2023 -2919 0
-2024 -2920 0
-2021 -2025 0
-2022 -2026 0
-2023 -2027 0
-2024 -2028 0
-2021 -3325 0
-2022 -3326 0
-2023 -3327 0
-2024 -3328 0
-2025 -2561 0
-2026 -2562 0
-2027 -2563 0
-2028 -2564 0
-2025 -3589 0
-2026 -3590 0
-2027 -3591 0
-2028 -3592 0
-2025 -2081 0
-2026 -2082 0
-2027 -2083 0
-2028 -2084 0
-2025 -5153 0
-2026 -5154 0
-2027 -5155 0
-2028 -5156 0
-2025 -3117 0
-2026 -3118 0
-2027 -3119 0
-2028 -3120 0
-2025 -4169 0
-2026 -4170 0
-2027 -4171 0
-2028 -4172 0
-2025 -5709 0
-2026 -5710 0
-2027 -5711 0
-2028 -5712 0
-2025 -5717 0
-2026 -5718 0
-2027 -5719 0
-2028 -5720 0
-2025 -4781 0
-2026 -4782 0
-2027 -4783 0
-2028 -4784 0
-2025 -2753 0
-2026 -2754 0
-2027 -2755 0
-2028 -2756 0
-2025 -2253 0
-2026 -2254 0
-2027 -2255 0
-2028 -2256 0
-2025 -3273 0
-2026 -3274 0
-2027 -3275 0
-2028 -3276 0
-2025 -3281 0
-2026 -3282 0
-2027 -3283 0
-2028 -3284 0
-2025 -2777 0
-2026 -2778 0
-2027 -2779 0
-2028 -2780 0
-2025 -4821 0
-2026 -4822 0
-2027 -4823 0
-2028 -4824 0
-2025 -3305 0
-2026 -3306 0
-2027 -3307 0
-2028 -3308 0
-2025 -3309 0
-2026 -3310 0
-2027 -3311 0
-2028 -3312 0
-2025 -4857 0
-2026 -4858 0
-2027 -4859 0
-2028 -4860 0
-2025 -5385 0
-2026 -5386 0
-2027 -5387 0
-2028 -5388 0
-2025 -5897 0
-2026 -5898 0
-2027 -5899 0
-2028 -5900 0
-2025 -5901 0
-2026 -5902 0
-2027 -5903 0
-2028 -5904 0
-2025 -3357 0
-2026 -3358 0
-2027 -3359 0
-2028 -3360 0
-2025 -2853 0
-2026 -2854 0
-2027 -2855 0
-2028 -2856 0
-2025 -2937 0
-2026 -2938 0
-2027 -2939 0
-2028 -2940 0
-2025 -6021 0
-2026 -6022 0
-2027 -6023 0
-2028 -6024 0
-2025 -2953 0
-2026 -2954 0
-2027 -2955 0
-2028 -2956 0
-2025 -4509 0
-2026 -4510 0
-2027 -4511 0
-2028 -4512 0
-2025 -4529 0
-2026 -4530 0
-2027 -4531 0
-2028 -4532 0
-2025 -5081 0
-2026 -5082 0
-2027 -5083 0
-2028 -5084 0
-2025 -2033 0
-2026 -2034 0
-2027 -2035 0
-2028 -2036 0
-2029 -2053 0
-2030 -2054 0
-2031 -2055 0
-2032 -2056 0
-2029 -3597 0
-2030 -3598 0
-2031 -3599 0
-2032 -3600 0
-2029 -5161 0
-2030 -5162 0
-2031 -5163 0
-2032 -5164 0
-2029 -3129 0
-2030 -3130 0
-2031 -3131 0
-2032 -3132 0
-2029 -4177 0
-2030 -4178 0
-2031 -4179 0
-2032 -4180 0
-2029 -4721 0
-2030 -4722 0
-2031 -4723 0
-2032 -4724 0
-2029 -2705 0
-2030 -2706 0
-2031 -2707 0
-2032 -2708 0
-2029 -4825 0
-2030 -4826 0
-2031 -4827 0
-2032 -4828 0
-2029 -3329 0
-2030 -3330 0
-2031 -3331 0
-2032 -3332 0
-2029 -2861 0
-2030 -2862 0
-2031 -2863 0
-2032 -2864 0
-2029 -3941 0
-2030 -3942 0
-2031 -3943 0
-2032 -3944 0
-2029 -2929 0
-2030 -2930 0
-2031 -2931 0
-2032 -2932 0
-2029 -3949 0
-2030 -3950 0
-2031 -3951 0
-2032 -3952 0
-2029 -4513 0
-2030 -4514 0
-2031 -4515 0
-2032 -4516 0
-2029 -2985 0
-2030 -2986 0
-2031 -2987 0
-2032 -2988 0
-2029 -2033 0
-2030 -2034 0
-2031 -2035 0
-2032 -2036 0
-2033 -5089 0
-2034 -5090 0
-2035 -5091 0
-2036 -5092 0
-2033 -2057 0
-2034 -2058 0
-2035 -2059 0
-2036 -2060 0
-2033 -2565 0
-2034 -2566 0
-2035 -2567 0
-2036 -2568 0
-2033 -3589 0
-2034 -3590 0
-2035 -3591 0
-2036 -3592 0
-2033 -3601 0
-2034 -3602 0
-2035 -3603 0
-2036 -3604 0
-2033 -2093 0
-2034 -2094 0
-2035 -2095 0
-2036 -2096 0
-2033 -5165 0
-2034 -5166 0
-2035 -5167 0
-2036 -5168 0
-2033 -3133 0
-2034 -3134 0
-2035 -3135 0
-2036 -3136 0
-2033 -5185 0
-2034 -5186 0
-2035 -5187 0
-2036 -5188 0
-2033 -3577 0
-2034 -3578 0
-2035 -3579 0
-2036 -3580 0
-2033 -5193 0
-2034 -5194 0
-2035 -5195 0
-2036 -5196 0
-2033 -4181 0
-2034 -4182 0
-2035 -4183 0
-2036 -4184 0
-2033 -2649 0
-2034 -2650 0
-2035 -2651 0
-2036 -2652 0
-2033 -6125 0
-2034 -6126 0
-2035 -6127 0
-2036 -6128 0
-2033 -4297 0
-2034 -4298 0
-2035 -4299 0
-2036 -4300 0
-2033 -2709 0
-2034 -2710 0
-2035 -2711 0
-2036 -2712 0
-2033 -2717 0
-2034 -2718 0
-2035 -2719 0
-2036 -2720 0
-2033 -5801 0
-2034 -5802 0
-2035 -5803 0
-2036 -5804 0
-2033 -2757 0
-2034 -2758 0
-2035 -2759 0
-2036 -2760 0
-2033 -3269 0
-2034 -3270 0
-2035 -3271 0
-2036 -3272 0
-2033 -2257 0
-2034 -2258 0
-2035 -2259 0
-2036 -2260 0
-2033 -3277 0
-2034 -3278 0
-2035 -3279 0
-2036 -3280 0
-2033 -2269 0
-2034 -2270 0
-2035 -2271 0
-2036 -2272 0
-2033 -2781 0
-2034 -2782 0
-2035 -2783 0
-2036 -2784 0
-2033 -3285 0
-2034 -3286 0
-2035 -3287 0
-2036 -3288 0
-2033 -3313 0
-2034 -3314 0
-2035 -3315 0
-2036 -3316 0
-2033 -3333 0
-2034 -3334 0
-2035 -3335 0
-2036 -3336 0
-2033 -2917 0
-2034 -2918 0
-2035 -2919 0
-2036 -2920 0
-2033 -3441 0
-2034 -3442 0
-2035 -3443 0
-2036 -3444 0
-2033 -3949 0
-2034 -3950 0
-2035 -3951 0
-2036 -3952 0
-2033 -3953 0
-2034 -3954 0
-2035 -3955 0
-2036 -3956 0
-2033 -2957 0
-2034 -2958 0
-2035 -2959 0
-2036 -2960 0
-2033 -6037 0
-2034 -6038 0
-2035 -6039 0
-2036 -6040 0
-2033 -3993 0
-2034 -3994 0
-2035 -3995 0
-2036 -3996 0
-2033 -4517 0
-2034 -4518 0
-2035 -4519 0
-2036 -4520 0
-2033 -2485 0
-2034 -2486 0
-2035 -2487 0
-2036 -2488 0
-2033 -2997 0
-2034 -2998 0
-2035 -2999 0
-2036 -3000 0
-2033 -4533 0
-2034 -4534 0
-2035 -4535 0
-2036 -4536 0
-2033 -3029 0
-2034 -3030 0
-2035 -3031 0
-2036 -3032 0
-2033 -2037 0
-2034 -2038 0
-2035 -2039 0
-2036 -2040 0
-2033 -3065 0
-2034 -3066 0
-2035 -3067 0
-2036 -3068 0
-2033 -2045 0
-2034 -2046 0
-2035 -2047 0
-2036 -2048 0
-2037 -3337 0
-2038 -3338 0
-2039 -3339 0
-2040 -3340 0
-2037 -2589 0
-2038 -2590 0
-2039 -2591 0
-2040 -2592 0
-2037 -3953 0
-2038 -3954 0
-2039 -3955 0
-2040 -3956 0
-2037 -4521 0
-2038 -4522 0
-2039 -4523 0
-2040 -4524 0
-2037 -5169 0
-2038 -5170 0
-2039 -5171 0
-2040 -5172 0
-2037 -2785 0
-2038 -2786 0
-2039 -2787 0
-2040 -2788 0
-2037 -3137 0
-2038 -3138 0
-2039 -3139 0
-2040 -3140 0
-2037 -2761 0
-2038 -2762 0
-2039 -2763 0
-2040 -2764 0
-2037 -5189 0
-2038 -5190 0
-2039 -5191 0
-2040 -5192 0
-2037 -2261 0
-2038 -2262 0
-2039 -2263 0
-2040 -2264 0
-2037 -3317 0
-2038 -3318 0
-2039 -3319 0
-2040 -3320 0
-2041 -2049 0
-2042 -2050 0
-2043 -2051 0
-2044 -2052 0
-2041 -3593 0
-2042 -3594 0
-2043 -3595 0
-2044 -3596 0
-2041 -2741 0
-2042 -2742 0
-2043 -2743 0
-2044 -2744 0
-2041 -2765 0
-2042 -2766 0
-2043 -2767 0
-2044 -2768 0
-2041 -5377 0
-2042 -5378 0
-2043 -5379 0
-2044 -5380 0
-2041 -3369 0
-2042 -3370 0
-2043 -3371 0
-2044 -3372 0
-2041 -2865 0
-2042 -2866 0
-2043 -2867 0
-2044 -2868 0
-2041 -2921 0
-2042 -2922 0
-2043 -2923 0
-2044 -2924 0
-2041 -2961 0
-2042 -2962 0
-2043 -2963 0
-2044 -2964 0
-2041 -3037 0
-2042 -3038 0
-2043 -3039 0
-2044 -3040 0
-2041 -5093 0
-2042 -5094 0
-2043 -5095 0
-2044 -5096 0
-2045 -4617 0
-2046 -4618 0
-2047 -4619 0
-2048 -4620 0
-2045 -2929 0
-2046 -2930 0
-2047 -2931 0
-2048 -2932 0
-2045 -3601 0
-2046 -3602 0
-2047 -3603 0
-2048 -3604 0
-2045 -4525 0
-2046 -4526 0
-2047 -4527 0
-2048 -4528 0
-2045 -2869 0
-2046 -2870 0
-2047 -2871 0
-2048 -2872 0
-2045 -3145 0
-2046 -3146 0
-2047 -3147 0
-2048 -3148 0
-2045 -2265 0
-2046 -2266 0
-2047 -2267 0
-2048 -2268 0
-2045 -4069 0
-2046 -4070 0
-2047 -4071 0
-2048 -4072 0
-2045 -4725 0
-2046 -4726 0
-2047 -4727 0
-2048 -4728 0
-2049 -3377 0
-2050 -3378 0
-2051 -3379 0
-2052 -3380 0
-2049 -2873 0
-2050 -2874 0
-2051 -2875 0
-2052 -2876 0
-2049 -3269 0
-2050 -3270 0
-2051 -3271 0
-2052 -3272 0
-2049 -2253 0
-2050 -2254 0
-2051 -2255 0
-2052 -2256 0
-2049 -2261 0
-2050 -2262 0
-2051 -2263 0
-2052 -2264 0
-2049 -3161 0
-2050 -3162 0
-2051 -3163 0
-2052 -3164 0
-2049 -4177 0
-2050 -4178 0
-2051 -4179 0
-2052 -4180 0
-2049 -3173 0
-2050 -3174 0
-2051 -3175 0
-2052 -3176 0
-2049 -3049 0
-2050 -3050 0
-2051 -3051 0
-2052 -3052 0
-2053 -5381 0
-2054 -5382 0
-2055 -5383 0
-2056 -5384 0
-2053 -2057 0
-2054 -2058 0
-2055 -2059 0
-2056 -2060 0
-2053 -6025 0
-2054 -6026 0
-2055 -6027 0
-2056 -6028 0
-2053 -2725 0
-2054 -2726 0
-2055 -2727 0
-2056 -2728 0
-2053 -3369 0
-2054 -3370 0
-2055 -3371 0
-2056 -3372 0
-2053 -3165 0
-2054 -3166 0
-2055 -3167 0
-2056 -3168 0
-2053 -3397 0
-2054 -3398 0
-2055 -3399 0
-2056 -3400 0
-2053 -3449 0
-2054 -3450 0
-2055 -3451 0
-2056 -3452 0
-2053 -4309 0
-2054 -4310 0
-2055 -4311 0
-2056 -4312 0
-2053 -4073 0
-2054 -4074 0
-2055 -4075 0
-2056 -4076 0
-2057 -5385 0
-2058 -5386 0
-2059 -5387 0
-2060 -5388 0
-2057 -5901 0
-2058 -5902 0
-2059 -5903 0
-2060 -5904 0
-2057 -2597 0
-2058 -2598 0
-2059 -2599 0
-2060 -2600 0
-2057 -3373 0
-2058 -3374 0
-2059 -3375 0
-2060 -3376 0
-2057 -4529 0
-2058 -4530 0
-2059 -4531 0
-2060 -4532 0
-2057 -6129 0
-2058 -6130 0
-2059 -6131 0
-2060 -6132 0
-2057 -5185 0
-2058 -5186 0
-2059 -5187 0
-2060 -5188 0
-2057 -3273 0
-2058 -3274 0
-2059 -3275 0
-2060 -3276 0
-2057 -2897 0
-2058 -2898 0
-2059 -2899 0
-2060 -2900 0
-2057 -3169 0
-2058 -3170 0
-2059 -3171 0
-2060 -3172 0
-2057 -5101 0
-2058 -5102 0
-2059 -5103 0
-2060 -5104 0
-2061 -2829 0
-2062 -2830 0
-2063 -2831 0
-2064 -2832 0
-2061 -5401 0
-2062 -5402 0
-2063 -5403 0
-2064 -5404 0
-2061 -2101 0
-2062 -2102 0
-2063 -2103 0
-2064 -2104 0
-2061 -4541 0
-2062 -4542 0
-2063 -4543 0
-2064 -4544 0
-2061 -2917 0
-2062 -2918 0
-2063 -2919 0
-2064 -2920 0
-2061 -3413 0
-2062 -3414 0
-2063 -3415 0
-2064 -3416 0
-2061 -5113 0
-2062 -5114 0
-2063 -5115 0
-2064 -5116 0
-2065 -4837 0
-2066 -4838 0
-2067 -4839 0
-2068 -4840 0
-2065 -3345 0
-2066 -3346 0
-2067 -3347 0
-2068 -3348 0
-2065 -2069 0
-2066 -2070 0
-2067 -2071 0
-2068 -2072 0
-2065 -5413 0
-2066 -5414 0
-2067 -5415 0
-2068 -5416 0
-2065 -2741 0
-2066 -2742 0
-2067 -2743 0
-2068 -2744 0
-2065 -4549 0
-2066 -4550 0
-2067 -4551 0
-2068 -4552 0
-2065 -2633 0
-2066 -2634 0
-2067 -2635 0
-2068 -2636 0
-2065 -2277 0
-2066 -2278 0
-2067 -2279 0
-2068 -2280 0
-2065 -5737 0
-2066 -5738 0
-2067 -5739 0
-2068 -5740 0
-2065 -3325 0
-2066 -3326 0
-2067 -3327 0
-2068 -3328 0
-2069 -3445 0
-2070 -3446 0
-2071 -3447 0
-2072 -3448 0
-2069 -4021 0
-2070 -4022 0
-2071 -4023 0
-2072 -4024 0
-2069 -2489 0
-2070 -2490 0
-2071 -2491 0
-2072 -2492 0
-2069 -2621 0
-2070 -2622 0
-2071 -2623 0
-2072 -2624 0
-2069 -2281 0
-2070 -2282 0
-2071 -2283 0
-2072 -2284 0
-2069 -3681 0
-2070 -3682 0
-2071 -3683 0
-2072 -3684 0
-2069 -5201 0
-2070 -5202 0
-2071 -5203 0
-2072 -5204 0
-2073 -3213 0
-2074 -3214 0
-2075 -3215 0
-2076 -3216 0
-2073 -3093 0
-2074 -3094 0
-2075 -3095 0
-2076 -3096 0
-2073 -5269 0
-2074 -5270 0
-2075 -5271 0
-2076 -5272 0
-2073 -2077 0
-2074 -2078 0
-2075 -2079 0
-2076 -2080 0
-2073 -3365 0
-2074 -3366 0
-2075 -3367 0
-2076 -3368 0
-2073 -3421 0
-2074 -3422 0
-2075 -3423 0
-2076 -3424 0
-2073 -5581 0
-2074 -5582 0
-2075 -5583 0
-2076 -5584 0
-2073 -2917 0
-2074 -2918 0
-2075 -2919 0
-2076 -2920 0
-2073 -4565 0
-2074 -4566 0
-2075 -4567 0
-2076 -4568 0
-2073 -3301 0
-2074 -3302 0
-2075 -3303 0
-2076 -3304 0
-2073 -2277 0
-2074 -2278 0
-2075 -2279 0
-2076 -2280 0
-2073 -5225 0
-2074 -5226 0
-2075 -5227 0
-2076 -5228 0
-2077 -3097 0
-2078 -3098 0
-2079 -3099 0
-2080 -3100 0
-2077 -2101 0
-2078 -2102 0
-2079 -2103 0
-2080 -2104 0
-2077 -3165 0
-2078 -3166 0
-2079 -3167 0
-2080 -3168 0
-2077 -5233 0
-2078 -5234 0
-2079 -5235 0
-2080 -5236 0
-2077 -3757 0
-2078 -3758 0
-2079 -3759 0
-2080 -3760 0
-2077 -2773 0
-2078 -2774 0
-2079 -2775 0
-2080 -2776 0
-2077 -2281 0
-2078 -2282 0
-2079 -2283 0
-2080 -2284 0
-2077 -4341 0
-2078 -4342 0
-2079 -4343 0
-2080 -4344 0
-2077 -2305 0
-2078 -2306 0
-2079 -2307 0
-2080 -2308 0
-2077 -5397 0
-2078 -5398 0
-2079 -5399 0
-2080 -5400 0
-2077 -3369 0
-2078 -3370 0
-2079 -3371 0
-2080 -3372 0
-2077 -3905 0
-2078 -3906 0
-2079 -3907 0
-2080 -3908 0
-2077 -3965 0
-2078 -3966 0
-2079 -3967 0
-2080 -3968 0
-2077 -2957 0
-2078 -2958 0
-2079 -2959 0
-2080 -2960 0
-2077 -4541 0
-2078 -4542 0
-2079 -4543 0
-2080 -4544 0
-2077 -4045 0
-2078 -4046 0
-2079 -4047 0
-2080 -4048 0
-2081 -2093 0
-2082 -2094 0
-2083 -2095 0
-2084 -2096 0
-2081 -3629 0
-2082 -3630 0
-2083 -3631 0
-2084 -3632 0
-2081 -5233 0
-2082 -5234 0
-2083 -5235 0
-2084 -5236 0
-2081 -3209 0
-2082 -3210 0
-2083 -3211 0
-2084 -3212 0
-2081 -3725 0
-2082 -3726 0
-2083 -3727 0
-2084 -3728 0
-2081 -5773 0
-2082 -5774 0
-2083 -5775 0
-2084 -5776 0
-2081 -2753 0
-2082 -2754 0
-2083 -2755 0
-2084 -2756 0
-2081 -2761 0
-2082 -2762 0
-2083 -2763 0
-2084 -2764 0
-2081 -2805 0
-2082 -2806 0
-2083 -2807 0
-2084 -2808 0
-2081 -2305 0
-2082 -2306 0
-2083 -2307 0
-2084 -2308 0
-2081 -4885 0
-2082 -4886 0
-2083 -4887 0
-2084 -4888 0
-2081 -5909 0
-2082 -5910 0
-2083 -5911 0
-2084 -5912 0
-2081 -3369 0
-2082 -3370 0
-2083 -3371 0
-2084 -3372 0
-2081 -5413 0
-2082 -5414 0
-2083 -5415 0
-2084 -5416 0
-2081 -5441 0
-2082 -5442 0
-2083 -5443 0
-2084 -5444 0
-2081 -3413 0
-2082 -3414 0
-2083 -3415 0
-2084 -3416 0
-2081 -3005 0
-2082 -3006 0
-2083 -3007 0
-2084 -3008 0
-2081 -4549 0
-2082 -4550 0
-2083 -4551 0
-2084 -4552 0
-2081 -4057 0
-2082 -4058 0
-2083 -4059 0
-2084 -4060 0
-2085 -4233 0
-2086 -4234 0
-2087 -4235 0
-2088 -4236 0
-2085 -3469 0
-2086 -3470 0
-2087 -3471 0
-2088 -3472 0
-2085 -2965 0
-2086 -2966 0
-2087 -2967 0
-2088 -2968 0
-2085 -2089 0
-2086 -2090 0
-2087 -2091 0
-2088 -2092 0
-2085 -2097 0
-2086 -2098 0
-2087 -2099 0
-2088 -2100 0
-2085 -3113 0
-2086 -3114 0
-2087 -3115 0
-2088 -3116 0
-2085 -2765 0
-2086 -2766 0
-2087 -2767 0
-2088 -2768 0
-2085 -4581 0
-2086 -4582 0
-2087 -4583 0
-2088 -4584 0
-2085 -5745 0
-2086 -5746 0
-2087 -5747 0
-2088 -5748 0
-2085 -2301 0
-2086 -2302 0
-2087 -2303 0
-2088 -2304 0
-2089 -5121 0
-2090 -5122 0
-2091 -5123 0
-2092 -5124 0
-2089 -4625 0
-2090 -4626 0
-2091 -4627 0
-2092 -4628 0
-2089 -3117 0
-2090 -3118 0
-2091 -3119 0
-2092 -3120 0
-2089 -3633 0
-2090 -3634 0
-2091 -3635 0
-2092 -3636 0
-2089 -5209 0
-2090 -5210 0
-2091 -5211 0
-2092 -5212 0
-2089 -5749 0
-2090 -5750 0
-2091 -5751 0
-2092 -5752 0
-2089 -4217 0
-2090 -4218 0
-2091 -4219 0
-2092 -4220 0
-2089 -4733 0
-2090 -4734 0
-2091 -4735 0
-2092 -4736 0
-2089 -4237 0
-2090 -4238 0
-2091 -4239 0
-2092 -4240 0
-2089 -4805 0
-2090 -4806 0
-2091 -4807 0
-2092 -4808 0
-2089 -4357 0
-2090 -4358 0
-2091 -4359 0
-2092 -4360 0
-2089 -5421 0
-2090 -5422 0
-2091 -5423 0
-2092 -5424 0
-2089 -3937 0
-2090 -3938 0
-2091 -3939 0
-2092 -3940 0
-2089 -3429 0
-2090 -3430 0
-2091 -3431 0
-2092 -3432 0
-2089 -5493 0
-2090 -5494 0
-2091 -5495 0
-2092 -5496 0
-2089 -2941 0
-2090 -2942 0
-2091 -2943 0
-2092 -2944 0
-2089 -5505 0
-2090 -5506 0
-2091 -5507 0
-2092 -5508 0
-2089 -6029 0
-2090 -6030 0
-2091 -6031 0
-2092 -6032 0
-2089 -2989 0
-2090 -2990 0
-2091 -2991 0
-2092 -2992 0
-2093 -3629 0
-2094 -3630 0
-2095 -3631 0
-2096 -3632 0
-2093 -3641 0
-2094 -3642 0
-2095 -3643 0
-2096 -3644 0
-2093 -5217 0
-2094 -5218 0
-2095 -5219 0
-2096 -5220 0
-2093 -3221 0
-2094 -3222 0
-2095 -3223 0
-2096 -3224 0
-2093 -5781 0
-2094 -5782 0
-2095 -5783 0
-2096 -5784 0
-2093 -2757 0
-2094 -2758 0
-2095 -2759 0
-2096 -2760 0
-2093 -2309 0
-2094 -2310 0
-2095 -2311 0
-2096 -2312 0
-2093 -4897 0
-2094 -4898 0
-2095 -4899 0
-2096 -4900 0
-2093 -3377 0
-2094 -3378 0
-2095 -3379 0
-2096 -3380 0
-2093 -3397 0
-2094 -3398 0
-2095 -3399 0
-2096 -3400 0
-2093 -3433 0
-2094 -3434 0
-2095 -3435 0
-2096 -3436 0
-2093 -3977 0
-2094 -3978 0
-2095 -3979 0
-2096 -3980 0
-2093 -4557 0
-2094 -4558 0
-2095 -4559 0
-2096 -4560 0
-2097 -2305 0
-2098 -2306 0
-2099 -2307 0
-2100 -2308 0
-2097 -3981 0
-2098 -3982 0
-2099 -3983 0
-2100 -3984 0
-2097 -4241 0
-2098 -4242 0
-2099 -4243 0
-2100 -4244 0
-2097 -4365 0
-2098 -4366 0
-2099 -4367 0
-2100 -4368 0
-2097 -3237 0
-2098 -3238 0
-2099 -3239 0
-2100 -3240 0
-2097 -3129 0
-2098 -3130 0
-2099 -3131 0
-2100 -3132 0
-2097 -5753 0
-2098 -5754 0
-2099 -5755 0
-2100 -5756 0
-2101 -2949 0
-2102 -2950 0
-2103 -2951 0
-2104 -2952 0
-2101 -3985 0
-2102 -3986 0
-2103 -3987 0
-2104 -3988 0
-2101 -3989 0
-2102 -3990 0
-2103 -3991 0
-2104 -3992 0
-2101 -5405 0
-2102 -5406 0
-2103 -5407 0
-2104 -5408 0
-2101 -3637 0
-2102 -3638 0
-2103 -3639 0
-2104 -3640 0
-2101 -3137 0
-2102 -3138 0
-2103 -3139 0
-2104 -3140 0
-2101 -3405 0
-2102 -3406 0
-2103 -3407 0
-2104 -3408 0
-2101 -4813 0
-2102 -4814 0
-2103 -4815 0
-2104 -4816 0
-2101 -3313 0
-2102 -3314 0
-2103 -3315 0
-2104 -3316 0
-2105 -4641 0
-2106 -4642 0
-2107 -4643 0
-2108 -4644 0
-2105 -2601 0
-2106 -2602 0
-2107 -2603 0
-2108 -2604 0
-2105 -2113 0
-2106 -2114 0
-2107 -2115 0
-2108 -2116 0
-2105 -3157 0
-2106 -3158 0
-2107 -3159 0
-2108 -3160 0
-2105 -5237 0
-2106 -5238 0
-2107 -5239 0
-2108 -5240 0
-2105 -4817 0
-2106 -4818 0
-2107 -4819 0
-2108 -4820 0
-2105 -2809 0
-2106 -2810 0
-2107 -2811 0
-2108 -2812 0
-2105 -3329 0
-2106 -3330 0
-2107 -3331 0
-2108 -3332 0
-2105 -4901 0
-2106 -4902 0
-2107 -4903 0
-2108 -4904 0
-2105 -3377 0
-2106 -3378 0
-2107 -3379 0
-2108 -3380 0
-2105 -5433 0
-2106 -5434 0
-2107 -5435 0
-2108 -5436 0
-2105 -3401 0
-2106 -3402 0
-2107 -3403 0
-2108 -3404 0
-2105 -5461 0
-2106 -5462 0
-2107 -5463 0
-2108 -5464 0
-2105 -3429 0
-2106 -3430 0
-2107 -3431 0
-2108 -3432 0
-2105 -3481 0
-2106 -3482 0
-2107 -3483 0
-2108 -3484 0
-2105 -4585 0
-2106 -4586 0
-2107 -4587 0
-2108 -4588 0
-2109 -3649 0
-2110 -3650 0
-2111 -3651 0
-2112 -3652 0
-2109 -2121 0
-2110 -2122 0
-2111 -2123 0
-2112 -2124 0
-2109 -3169 0
-2110 -3170 0
-2111 -3171 0
-2112 -3172 0
-2109 -3209 0
-2110 -3210 0
-2111 -3211 0
-2112 -3212 0
-2109 -2237 0
-2110 -2238 0
-2111 -2239 0
-2112 -2240 0
-2109 -2777 0
-2110 -2778 0
-2111 -2779 0
-2112 -2780 0
-2109 -2785 0
-2110 -2786 0
-2111 -2787 0
-2112 -2788 0
-2109 -2805 0
-2110 -2806 0
-2111 -2807 0
-2112 -2808 0
-2109 -3329 0
-2110 -3330 0
-2111 -3331 0
-2112 -3332 0
-2109 -4881 0
-2110 -4882 0
-2111 -4883 0
-2112 -4884 0
-2109 -5949 0
-2110 -5950 0
-2111 -5951 0
-2112 -5952 0
-2109 -3413 0
-2110 -3414 0
-2111 -3415 0
-2112 -3416 0
-2109 -4949 0
-2110 -4950 0
-2111 -4951 0
-2112 -4952 0
-2109 -3037 0
-2110 -3038 0
-2111 -3039 0
-2112 -3040 0
-2113 -5245 0
-2114 -5246 0
-2115 -5247 0
-2116 -5248 0
-2113 -5305 0
-2114 -5306 0
-2115 -5307 0
-2116 -5308 0
-2113 -2241 0
-2114 -2242 0
-2115 -2243 0
-2116 -2244 0
-2113 -3325 0
-2114 -3326 0
-2115 -3327 0
-2116 -3328 0
-2113 -2313 0
-2114 -2314 0
-2115 -2315 0
-2116 -2316 0
-2113 -3369 0
-2114 -3370 0
-2115 -3371 0
-2116 -3372 0
-2113 -4405 0
-2114 -4406 0
-2115 -4407 0
-2116 -4408 0
-2113 -4485 0
-2114 -4486 0
-2115 -4487 0
-2116 -4488 0
-2113 -6033 0
-2114 -6034 0
-2115 -6035 0
-2116 -6036 0
-2113 -3997 0
-2114 -3998 0
-2115 -3999 0
-2116 -4000 0
-2113 -4009 0
-2114 -4010 0
-2115 -4011 0
-2116 -4012 0
-2113 -4569 0
-2114 -4570 0
-2115 -4571 0
-2116 -4572 0
-2113 -5593 0
-2114 -5594 0
-2115 -5595 0
-2116 -5596 0
-2117 -5245 0
-2118 -5246 0
-2119 -5247 0
-2120 -5248 0
-2117 -5309 0
-2118 -5310 0
-2119 -5311 0
-2120 -5312 0
-2117 -2253 0
-2118 -2254 0
-2119 -2255 0
-2120 -2256 0
-2117 -2313 0
-2118 -2314 0
-2119 -2315 0
-2120 -2316 0
-2117 -3345 0
-2118 -3346 0
-2119 -3347 0
-2120 -3348 0
-2117 -2345 0
-2118 -2346 0
-2119 -2347 0
-2120 -2348 0
-2117 -4413 0
-2118 -4414 0
-2119 -4415 0
-2120 -4416 0
-2117 -4005 0
-2118 -4006 0
-2119 -4007 0
-2120 -4008 0
-2117 -4009 0
-2118 -4010 0
-2119 -4011 0
-2120 -4012 0
-2117 -6073 0
-2118 -6074 0
-2119 -6075 0
-2120 -6076 0
-2117 -4601 0
-2118 -4602 0
-2119 -4603 0
-2120 -4604 0
-2121 -4117 0
-2122 -4118 0
-2123 -4119 0
-2124 -4120 0
-2121 -2149 0
-2122 -2150 0
-2123 -2151 0
-2124 -2152 0
-2121 -3189 0
-2122 -3190 0
-2123 -3191 0
-2124 -3192 0
-2121 -2693 0
-2122 -2694 0
-2123 -2695 0
-2124 -2696 0
-2121 -2197 0
-2122 -2198 0
-2123 -2199 0
-2124 -2200 0
-2121 -3237 0
-2122 -3238 0
-2123 -3239 0
-2124 -3240 0
-2121 -5321 0
-2122 -5322 0
-2123 -5323 0
-2124 -5324 0
-2121 -5841 0
-2122 -5842 0
-2123 -5843 0
-2124 -5844 0
-2121 -2261 0
-2122 -2262 0
-2123 -2263 0
-2124 -2264 0
-2121 -5877 0
-2122 -5878 0
-2123 -5879 0
-2124 -5880 0
-2121 -3357 0
-2122 -3358 0
-2123 -3359 0
-2124 -3360 0
-2121 -4901 0
-2122 -4902 0
-2123 -4903 0
-2124 -4904 0
-2121 -3369 0
-2122 -3370 0
-2123 -3371 0
-2124 -3372 0
-2121 -5429 0
-2122 -5430 0
-2123 -5431 0
-2124 -5432 0
-2121 -4417 0
-2122 -4418 0
-2123 -4419 0
-2124 -4420 0
-2121 -4965 0
-2122 -4966 0
-2123 -4967 0
-2124 -4968 0
-2121 -3489 0
-2122 -3490 0
-2123 -3491 0
-2124 -3492 0
-2121 -4013 0
-2122 -4014 0
-2123 -4015 0
-2124 -4016 0
-2121 -6077 0
-2122 -6078 0
-2123 -6079 0
-2124 -6080 0
-2121 -3057 0
-2122 -3058 0
-2123 -3059 0
-2124 -3060 0
-2121 -6141 0
-2122 -6142 0
-2123 -6143 0
-2124 -6144 0
-2125 -4837 0
-2126 -4838 0
-2127 -4839 0
-2128 -4840 0
-2125 -5389 0
-2126 -5390 0
-2127 -5391 0
-2128 -5392 0
-2125 -4021 0
-2126 -4022 0
-2127 -4023 0
-2128 -4024 0
-2125 -3389 0
-2126 -3390 0
-2127 -3391 0
-2128 -3392 0
-2125 -5333 0
-2126 -5334 0
-2127 -5335 0
-2128 -5336 0
-2125 -5845 0
-2126 -5846 0
-2127 -5847 0
-2128 -5848 0
-2125 -2269 0
-2126 -2270 0
-2127 -2271 0
-2128 -2272 0
-2125 -3429 0
-2126 -3430 0
-2127 -3431 0
-2128 -3432 0
-2129 -4609 0
-2130 -4610 0
-2131 -4611 0
-2132 -4612 0
-2129 -4653 0
-2130 -4654 0
-2131 -4655 0
-2132 -4656 0
-2129 -4025 0
-2130 -4026 0
-2131 -4027 0
-2132 -4028 0
-2129 -4429 0
-2130 -4430 0
-2131 -4431 0
-2132 -4432 0
-2129 -4841 0
-2130 -4842 0
-2131 -4843 0
-2132 -4844 0
-2129 -2801 0
-2130 -2802 0
-2131 -2803 0
-2132 -2804 0
-2133 -3221 0
-2134 -3222 0
-2135 -3223 0
-2136 -3224 0
-2133 -2993 0
-2134 -2994 0
-2135 -2995 0
-2136 -2996 0
-2133 -3517 0
-2134 -3518 0
-2135 -3519 0
-2136 -3520 0
-2133 -4673 0
-2134 -4674 0
-2135 -4675 0
-2136 -4676 0
-2133 -4045 0
-2134 -4046 0
-2135 -4047 0
-2136 -4048 0
-2133 -5965 0
-2134 -5966 0
-2135 -5967 0
-2136 -5968 0
-2133 -4057 0
-2134 -4058 0
-2135 -4059 0
-2136 -4060 0
-2137 -5405 0
-2138 -5406 0
-2139 -5407 0
-2140 -5408 0
-2137 -3237 0
-2138 -3238 0
-2139 -3239 0
-2140 -3240 0
-2137 -3117 0
-2138 -3118 0
-2139 -3119 0
-2140 -3120 0
-2137 -5605 0
-2138 -5606 0
-2139 -5607 0
-2140 -5608 0
-2141 -3241 0
-2142 -3242 0
-2143 -3243 0
-2144 -3244 0
-2141 -3129 0
-2142 -3130 0
-2143 -3131 0
-2144 -3132 0
-2141 -2145 0
-2142 -2146 0
-2143 -2147 0
-2144 -2148 0
-2141 -4065 0
-2142 -4066 0
-2143 -4067 0
-2144 -4068 0
-2141 -4469 0
-2142 -4470 0
-2143 -4471 0
-2144 -4472 0
-2141 -4989 0
-2142 -4990 0
-2143 -4991 0
-2144 -4992 0
-2145 -2309 0
-2146 -2310 0
-2147 -2311 0
-2148 -2312 0
-2145 -3165 0
-2146 -3166 0
-2147 -3167 0
-2148 -3168 0
-2145 -4973 0
-2146 -4974 0
-2147 -4975 0
-2148 -4976 0
-2145 -4945 0
-2146 -4946 0
-2147 -4947 0
-2148 -4948 0
-2145 -3669 0
-2146 -3670 0
-2147 -3671 0
-2148 -3672 0
-2145 -3545 0
-2146 -3546 0
-2147 -3547 0
-2148 -3548 0
-2145 -2149 0
-2146 -2150 0
-2147 -2151 0
-2148 -2152 0
-2145 -4077 0
-2146 -4078 0
-2147 -4079 0
-2148 -4080 0
-2145 -5365 0
-2146 -5366 0
-2147 -5367 0
-2148 -5368 0
-2145 -2809 0
-2146 -2810 0
-2147 -2811 0
-2148 -2812 0
-2149 -3169 0
-2150 -3170 0
-2151 -3171 0
-2152 -3172 0
-2149 -4949 0
-2150 -4950 0
-2151 -4951 0
-2152 -4952 0
-2149 -3549 0
-2150 -3550 0
-2151 -3551 0
-2152 -3552 0
-2149 -3437 0
-2150 -3438 0
-2151 -3439 0
-2152 -3440 0
-2149 -4081 0
-2150 -4082 0
-2151 -4083 0
-2152 -4084 0
-2149 -2421 0
-2150 -2422 0
-2151 -2423 0
-2152 -2424 0
-2153 -2833 0
-2154 -2834 0
-2155 -2835 0
-2156 -2836 0
-2153 -4277 0
-2154 -4278 0
-2155 -4279 0
-2156 -4280 0
-2153 -3037 0
-2154 -3038 0
-2155 -3039 0
-2156 -3040 0
-2153 -3445 0
-2154 -3446 0
-2155 -3447 0
-2156 -3448 0
-2153 -2813 0
-2154 -2814 0
-2155 -2815 0
-2156 -2816 0
-2157 -5137 0
-2158 -5138 0
-2159 -5139 0
-2160 -5140 0
-2157 -2845 0
-2158 -2846 0
-2159 -2847 0
-2160 -2848 0
-2157 -3053 0
-2158 -3054 0
-2159 -3055 0
-2160 -3056 0
-2157 -3449 0
-2158 -3450 0
-2159 -3451 0
-2160 -3452 0
-2157 -2813 0
-2158 -2814 0
-2159 -2815 0
-2160 -2816 0
-2161 -2213 0
-2162 -2214 0
-2163 -2215 0
-2164 -2216 0
-2161 -4137 0
-2162 -4138 0
-2163 -4139 0
-2164 -4140 0
-2161 -2353 0
-2162 -2354 0
-2163 -2355 0
-2164 -2356 0
-2161 -3777 0
-2162 -3778 0
-2163 -3779 0
-2164 -3780 0
-2161 -3017 0
-2162 -3018 0
-2163 -3019 0
-2164 -3020 0
-2161 -3285 0
-2162 -3286 0
-2163 -3287 0
-2164 -3288 0
-2165 -5261 0
-2166 -5262 0
-2167 -5263 0
-2168 -5264 0
-2165 -3093 0
-2166 -3094 0
-2167 -3095 0
-2168 -3096 0
-2165 -4497 0
-2166 -4498 0
-2167 -4499 0
-2168 -4500 0
-2165 -4881 0
-2166 -4882 0
-2167 -4883 0
-2168 -4884 0
-2165 -2345 0
-2166 -2346 0
-2167 -2347 0
-2168 -2348 0
-2165 -2221 0
-2166 -2222 0
-2167 -2223 0
-2168 -2224 0
-2165 -4141 0
-2166 -4142 0
-2167 -4143 0
-2168 -4144 0
-2169 -2817 0
-2170 -2818 0
-2171 -2819 0
-2172 -2820 0
-2169 -4617 0
-2170 -4618 0
-2171 -4619 0
-2172 -4620 0
-2169 -4889 0
-2170 -4890 0
-2171 -4891 0
-2172 -4892 0
-2169 -3493 0
-2170 -3494 0
-2171 -3495 0
-2172 -3496 0
-2169 -2353 0
-2170 -2354 0
-2171 -2355 0
-2172 -2356 0
-2169 -2229 0
-2170 -2230 0
-2171 -2231 0
-2172 -2232 0
-2169 -2889 0
-2170 -2890 0
-2171 -2891 0
-2172 -2892 0
-2169 -3661 0
-2170 -3662 0
-2171 -3663 0
-2172 -3664 0
-2173 -2177 0
-2174 -2178 0
-2175 -2179 0
-2176 -2180 0
-2173 -5269 0
-2174 -5270 0
-2175 -5271 0
-2176 -5272 0
-2173 -2713 0
-2174 -2714 0
-2175 -2715 0
-2176 -2716 0
-2173 -3261 0
-2174 -3262 0
-2175 -3263 0
-2176 -3264 0
-2173 -3269 0
-2174 -3270 0
-2175 -3271 0
-2176 -3272 0
-2173 -3297 0
-2174 -3298 0
-2175 -3299 0
-2176 -3300 0
-2173 -2341 0
-2174 -2342 0
-2175 -2343 0
-2176 -2344 0
-2173 -2857 0
-2174 -2858 0
-2175 -2859 0
-2176 -2860 0
-2173 -2357 0
-2174 -2358 0
-2175 -2359 0
-2176 -2360 0
-2173 -2365 0
-2174 -2366 0
-2175 -2367 0
-2176 -2368 0
-2173 -2901 0
-2174 -2902 0
-2175 -2903 0
-2176 -2904 0
-2173 -3973 0
-2174 -3974 0
-2175 -3975 0
-2176 -3976 0
-2173 -3465 0
-2174 -3466 0
-2175 -3467 0
-2176 -3468 0
-2173 -3473 0
-2174 -3474 0
-2175 -3475 0
-2176 -3476 0
-2173 -3505 0
-2174 -3506 0
-2175 -3507 0
-2176 -3508 0
-2173 -3037 0
-2174 -3038 0
-2175 -3039 0
-2176 -3040 0
-2173 -3053 0
-2174 -3054 0
-2175 -3055 0
-2176 -3056 0
-2177 -2829 0
-2178 -2830 0
-2179 -2831 0
-2180 -2832 0
-2177 -2353 0
-2178 -2354 0
-2179 -2355 0
-2180 -2356 0
-2177 -2249 0
-2178 -2250 0
-2179 -2251 0
-2180 -2252 0
-2177 -2381 0
-2178 -2382 0
-2179 -2383 0
-2180 -2384 0
-2177 -3049 0
-2178 -3050 0
-2179 -3051 0
-2180 -3052 0
-2181 -4097 0
-2182 -4098 0
-2183 -4099 0
-2184 -4100 0
-2181 -3085 0
-2182 -3086 0
-2183 -3087 0
-2184 -3088 0
-2181 -2193 0
-2182 -2194 0
-2183 -2195 0
-2184 -2196 0
-2181 -2841 0
-2182 -2842 0
-2183 -2843 0
-2184 -2844 0
-2181 -3129 0
-2182 -3130 0
-2183 -3131 0
-2184 -3132 0
-2181 -4321 0
-2182 -4322 0
-2183 -4323 0
-2184 -4324 0
-2185 -4101 0
-2186 -4102 0
-2187 -4103 0
-2188 -4104 0
-2185 -3137 0
-2186 -3138 0
-2187 -3139 0
-2188 -3140 0
-2185 -3681 0
-2186 -3682 0
-2187 -3683 0
-2188 -3684 0
-2185 -2673 0
-2186 -2674 0
-2187 -2675 0
-2188 -2676 0
-2185 -2681 0
-2186 -2682 0
-2187 -2683 0
-2188 -2684 0
-2185 -3193 0
-2186 -3194 0
-2187 -3195 0
-2188 -3196 0
-2185 -5801 0
-2186 -5802 0
-2187 -5803 0
-2188 -5804 0
-2185 -4857 0
-2186 -4858 0
-2187 -4859 0
-2188 -4860 0
-2185 -4905 0
-2186 -4906 0
-2187 -4907 0
-2188 -4908 0
-2185 -5933 0
-2186 -5934 0
-2187 -5935 0
-2188 -5936 0
-2185 -5945 0
-2186 -5946 0
-2187 -5947 0
-2188 -5948 0
-2185 -2925 0
-2186 -2926 0
-2187 -2927 0
-2188 -2928 0
-2185 -2945 0
-2186 -2946 0
-2187 -2947 0
-2188 -2948 0
-2185 -3465 0
-2186 -3466 0
-2187 -3467 0
-2188 -3468 0
-2185 -3473 0
-2186 -3474 0
-2187 -3475 0
-2188 -3476 0
-2185 -3481 0
-2186 -3482 0
-2187 -3483 0
-2188 -3484 0
-2185 -3501 0
-2186 -3502 0
-2187 -3503 0
-2188 -3504 0
-2185 -5561 0
-2186 -5562 0
-2187 -5563 0
-2188 -5564 0
-2185 -3017 0
-2186 -3018 0
-2187 -3019 0
-2188 -3020 0
-2185 -4069 0
-2186 -4070 0
-2187 -4071 0
-2188 -4072 0
-2189 -3213 0
-2190 -3214 0
-2191 -3215 0
-2192 -3216 0
-2189 -2841 0
-2190 -2842 0
-2191 -2843 0
-2192 -2844 0
-2189 -2725 0
-2190 -2726 0
-2191 -2727 0
-2192 -2728 0
-2189 -3509 0
-2190 -3510 0
-2191 -3511 0
-2192 -3512 0
-2189 -2257 0
-2190 -2258 0
-2191 -2259 0
-2192 -2260 0
-2189 -3021 0
-2190 -3022 0
-2191 -3023 0
-2192 -3024 0
-2189 -3145 0
-2190 -3146 0
-2191 -3147 0
-2192 -3148 0
-2189 -3665 0
-2190 -3666 0
-2191 -3667 0
-2192 -3668 0
-2189 -4213 0
-2190 -4214 0
-2191 -4215 0
-2192 -4216 0
-2189 -3305 0
-2190 -3306 0
-2191 -3307 0
-2192 -3308 0
-2189 -4337 0
-2190 -4338 0
-2191 -4339 0
-2192 -4340 0
-2189 -3061 0
-2190 -3062 0
-2191 -3063 0
-2192 -3064 0
-2193 -4109 0
-2194 -4110 0
-2195 -4111 0
-2196 -4112 0
-2193 -4353 0
-2194 -4354 0
-2195 -4355 0
-2196 -4356 0
-2193 -2197 0
-2194 -2198 0
-2195 -2199 0
-2196 -2200 0
-2193 -3121 0
-2194 -3122 0
-2195 -3123 0
-2196 -3124 0
-2193 -5205 0
-2194 -5206 0
-2195 -5207 0
-2196 -5208 0
-2193 -3033 0
-2194 -3034 0
-2195 -3035 0
-2196 -3036 0
-2193 -3165 0
-2194 -3166 0
-2195 -3167 0
-2196 -3168 0
-2193 -4077 0
-2194 -4078 0
-2195 -4079 0
-2196 -4080 0
-2193 -3065 0
-2194 -3066 0
-2195 -3067 0
-2196 -3068 0
-2193 -4221 0
-2194 -4222 0
-2195 -4223 0
-2196 -4224 0
-2197 -4113 0
-2198 -4114 0
-2199 -4115 0
-2200 -4116 0
-2197 -4701 0
-2198 -4702 0
-2199 -4703 0
-2200 -4704 0
-2197 -3169 0
-2198 -3170 0
-2199 -3171 0
-2200 -3172 0
-2197 -5273 0
-2198 -5274 0
-2199 -5275 0
-2200 -5276 0
-2197 -5277 0
-2198 -5278 0
-2199 -5279 0
-2200 -5280 0
-2197 -3805 0
-2198 -3806 0
-2199 -3807 0
-2200 -3808 0
-2197 -5477 0
-2198 -5478 0
-2199 -5479 0
-2200 -5480 0
-2197 -3489 0
-2198 -3490 0
-2199 -3491 0
-2200 -3492 0
-2197 -3529 0
-2198 -3530 0
-2199 -3531 0
-2200 -3532 0
-2197 -3037 0
-2198 -3038 0
-2199 -3039 0
-2200 -3040 0
-2201 -2321 0
-2202 -2322 0
-2203 -2323 0
-2204 -2324 0
-2201 -2329 0
-2202 -2330 0
-2203 -2331 0
-2204 -2332 0
-2201 -5025 0
-2202 -5026 0
-2203 -5027 0
-2204 -5028 0
-2201 -5281 0
-2202 -5282 0
-2203 -5283 0
-2204 -5284 0
-2201 -2225 0
-2202 -2226 0
-2203 -2227 0
-2204 -2228 0
-2201 -5293 0
-2202 -5294 0
-2203 -5295 0
-2204 -5296 0
-2201 -5581 0
-2202 -5582 0
-2203 -5583 0
-2204 -5584 0
-2201 -3825 0
-2202 -3826 0
-2203 -3827 0
-2204 -3828 0
-2205 -3081 0
-2206 -3082 0
-2207 -3083 0
-2208 -3084 0
-2205 -4621 0
-2206 -4622 0
-2207 -4623 0
-2208 -4624 0
-2205 -3097 0
-2206 -3098 0
-2207 -3099 0
-2208 -3100 0
-2205 -4121 0
-2206 -4122 0
-2207 -4123 0
-2208 -4124 0
-2205 -4185 0
-2206 -4186 0
-2207 -4187 0
-2208 -4188 0
-2205 -3193 0
-2206 -3194 0
-2207 -3195 0
-2208 -3196 0
-2205 -2209 0
-2206 -2210 0
-2207 -2211 0
-2208 -2212 0
-2205 -2233 0
-2206 -2234 0
-2207 -2235 0
-2208 -2236 0
-2205 -2745 0
-2206 -2746 0
-2207 -2747 0
-2208 -2748 0
-2205 -3269 0
-2206 -3270 0
-2207 -3271 0
-2208 -3272 0
-2205 -3301 0
-2206 -3302 0
-2207 -3303 0
-2208 -3304 0
-2205 -3817 0
-2206 -3818 0
-2207 -3819 0
-2208 -3820 0
-2205 -3833 0
-2206 -3834 0
-2207 -3835 0
-2208 -3836 0
-2205 -2401 0
-2206 -2402 0
-2207 -2403 0
-2208 -2404 0
-2205 -2941 0
-2206 -2942 0
-2207 -2943 0
-2208 -2944 0
-2205 -3497 0
-2206 -3498 0
-2207 -3499 0
-2208 -3500 0
-2205 -4573 0
-2206 -4574 0
-2207 -4575 0
-2208 -4576 0
-2209 -3093 0
-2210 -3094 0
-2211 -3095 0
-2212 -3096 0
-2209 -2213 0
-2210 -2214 0
-2211 -2215 0
-2212 -2216 0
-2209 -2725 0
-2210 -2726 0
-2211 -2727 0
-2212 -2728 0
-2209 -2865 0
-2210 -2866 0
-2211 -2867 0
-2212 -2868 0
-2209 -3305 0
-2210 -3306 0
-2211 -3307 0
-2212 -3308 0
-2209 -2877 0
-2210 -2878 0
-2211 -2879 0
-2212 -2880 0
-2209 -5305 0
-2210 -5306 0
-2211 -5307 0
-2212 -5308 0
-2209 -5309 0
-2210 -5310 0
-2211 -5311 0
-2212 -5312 0
-2209 -3665 0
-2210 -3666 0
-2211 -3667 0
-2212 -3668 0
-2209 -3029 0
-2210 -3030 0
-2211 -3031 0
-2212 -3032 0
-2209 -2409 0
-2210 -2410 0
-2211 -2411 0
-2212 -2412 0
-2209 -3069 0
-2210 -3070 0
-2211 -3071 0
-2212 -3072 0
-2213 -2949 0
-2214 -2950 0
-2215 -2951 0
-2216 -2952 0
-2213 -3461 0
-2214 -3462 0
-2215 -3463 0
-2216 -3464 0
-2213 -3097 0
-2214 -3098 0
-2215 -3099 0
-2216 -3100 0
-2213 -3505 0
-2214 -3506 0
-2215 -3507 0
-2216 -3508 0
-2213 -2245 0
-2214 -2246 0
-2215 -2247 0
-2216 -2248 0
-2213 -2413 0
-2214 -2414 0
-2215 -2415 0
-2216 -2416 0
-2213 -3833 0
-2214 -3834 0
-2215 -3835 0
-2216 -3836 0
-2217 -2325 0
-2218 -2326 0
-2219 -2327 0
-2220 -2328 0
-2217 -4121 0
-2218 -4122 0
-2219 -4123 0
-2220 -4124 0
-2217 -4629 0
-2218 -4630 0
-2219 -4631 0
-2220 -4632 0
-2217 -3497 0
-2218 -3498 0
-2219 -3499 0
-2220 -3500 0
-2217 -5285 0
-2218 -5286 0
-2219 -5287 0
-2220 -5288 0
-2217 -2225 0
-2218 -2226 0
-2219 -2227 0
-2220 -2228 0
-2217 -5805 0
-2218 -5806 0
-2219 -5807 0
-2220 -5808 0
-2217 -2889 0
-2218 -2890 0
-2219 -2891 0
-2220 -2892 0
-2217 -2281 0
-2218 -2282 0
-2219 -2283 0
-2220 -2284 0
-2217 -4189 0
-2218 -4190 0
-2219 -4191 0
-2220 -4192 0
-2217 -2401 0
-2218 -2402 0
-2219 -2403 0
-2220 -2404 0
-2221 -3073 0
-2222 -3074 0
-2223 -3075 0
-2224 -3076 0
-2221 -4633 0
-2222 -4634 0
-2223 -4635 0
-2224 -4636 0
-2221 -3109 0
-2222 -3110 0
-2223 -3111 0
-2224 -3112 0
-2221 -3121 0
-2222 -3122 0
-2223 -3123 0
-2224 -3124 0
-2221 -3201 0
-2222 -3202 0
-2223 -3203 0
-2224 -3204 0
-2221 -5289 0
-2222 -5290 0
-2223 -5291 0
-2224 -5292 0
-2221 -2225 0
-2222 -2226 0
-2223 -2227 0
-2224 -2228 0
-2221 -2233 0
-2222 -2234 0
-2223 -2235 0
-2224 -2236 0
-2221 -2253 0
-2222 -2254 0
-2223 -2255 0
-2224 -2256 0
-2221 -5869 0
-2222 -5870 0
-2223 -5871 0
-2224 -5872 0
-2221 -2289 0
-2222 -2290 0
-2223 -2291 0
-2224 -2292 0
-2221 -3325 0
-2222 -3326 0
-2223 -3327 0
-2224 -3328 0
-2221 -3841 0
-2222 -3842 0
-2223 -3843 0
-2224 -3844 0
-2221 -4861 0
-2222 -4862 0
-2223 -4863 0
-2224 -4864 0
-2221 -3857 0
-2222 -3858 0
-2223 -3859 0
-2224 -3860 0
-2221 -3349 0
-2222 -3350 0
-2223 -3351 0
-2224 -3352 0
-2221 -4397 0
-2222 -4398 0
-2223 -4399 0
-2224 -4400 0
-2221 -4929 0
-2222 -4930 0
-2223 -4931 0
-2224 -4932 0
-2221 -3469 0
-2222 -3470 0
-2223 -3471 0
-2224 -3472 0
-2221 -3481 0
-2222 -3482 0
-2223 -3483 0
-2224 -3484 0
-2221 -2981 0
-2222 -2982 0
-2223 -2983 0
-2224 -2984 0
-2221 -4517 0
-2222 -4518 0
-2223 -4519 0
-2224 -4520 0
-2221 -6069 0
-2222 -6070 0
-2223 -6071 0
-2224 -6072 0
-2221 -3521 0
-2222 -3522 0
-2223 -3523 0
-2224 -3524 0
-2221 -6133 0
-2222 -6134 0
-2223 -6135 0
-2224 -6136 0
-2225 -5293 0
-2226 -5294 0
-2227 -5295 0
-2228 -5296 0
-2225 -2229 0
-2226 -2230 0
-2227 -2231 0
-2228 -2232 0
-2225 -5817 0
-2226 -5818 0
-2227 -5819 0
-2228 -5820 0
-2225 -2237 0
-2226 -2238 0
-2227 -2239 0
-2228 -2240 0
-2225 -2753 0
-2226 -2754 0
-2227 -2755 0
-2228 -2756 0
-2225 -5309 0
-2226 -5310 0
-2227 -5311 0
-2228 -5312 0
-2225 -3309 0
-2226 -3310 0
-2227 -3311 0
-2228 -3312 0
-2225 -4865 0
-2226 -4866 0
-2227 -4867 0
-2228 -4868 0
-2225 -3845 0
-2226 -3846 0
-2227 -3847 0
-2228 -3848 0
-2225 -2885 0
-2226 -2886 0
-2227 -2887 0
-2228 -2888 0
-2225 -4933 0
-2226 -4934 0
-2227 -4935 0
-2228 -4936 0
-2225 -2897 0
-2226 -2898 0
-2227 -2899 0
-2228 -2900 0
-2225 -2409 0
-2226 -2410 0
-2227 -2411 0
-2228 -2412 0
-2225 -5029 0
-2226 -5030 0
-2227 -5031 0
-2228 -5032 0
-2225 -4521 0
-2226 -4522 0
-2227 -4523 0
-2228 -4524 0
-2225 -3541 0
-2226 -3542 0
-2227 -3543 0
-2228 -3544 0
-2229 -2953 0
-2230 -2954 0
-2231 -2955 0
-2232 -2956 0
-2229 -2585 0
-2230 -2586 0
-2231 -2587 0
-2232 -2588 0
-2229 -4637 0
-2230 -4638 0
-2231 -4639 0
-2232 -4640 0
-2229 -3505 0
-2230 -3506 0
-2231 -3507 0
-2232 -3508 0
-2229 -5297 0
-2230 -5298 0
-2231 -5299 0
-2232 -5300 0
-2229 -5821 0
-2230 -5822 0
-2231 -5823 0
-2232 -5824 0
-2229 -3525 0
-2230 -3526 0
-2231 -3527 0
-2232 -3528 0
-2229 -2889 0
-2230 -2890 0
-2231 -2891 0
-2232 -2892 0
-2229 -3277 0
-2230 -3278 0
-2231 -3279 0
-2232 -3280 0
-2229 -2413 0
-2230 -2414 0
-2231 -2415 0
-2232 -2416 0
-2233 -3117 0
-2234 -3118 0
-2235 -3119 0
-2236 -3120 0
-2233 -3137 0
-2234 -3138 0
-2235 -3139 0
-2236 -3140 0
-2233 -3669 0
-2234 -3670 0
-2235 -3671 0
-2236 -3672 0
-2233 -4705 0
-2234 -4706 0
-2235 -4707 0
-2236 -4708 0
-2233 -2237 0
-2234 -2238 0
-2235 -2239 0
-2236 -2240 0
-2233 -5313 0
-2234 -5314 0
-2235 -5315 0
-2236 -5316 0
-2233 -2257 0
-2234 -2258 0
-2235 -2259 0
-2236 -2260 0
-2233 -3329 0
-2234 -3330 0
-2235 -3331 0
-2236 -3332 0
-2233 -3853 0
-2234 -3854 0
-2235 -3855 0
-2236 -3856 0
-2233 -3865 0
-2234 -3866 0
-2235 -3867 0
-2236 -3868 0
-2233 -2905 0
-2234 -2906 0
-2235 -2907 0
-2236 -2908 0
-2233 -5981 0
-2234 -5982 0
-2235 -5983 0
-2236 -5984 0
-2233 -2433 0
-2234 -2434 0
-2235 -2435 0
-2236 -2436 0
-2233 -3485 0
-2234 -3486 0
-2235 -3487 0
-2236 -3488 0
-2233 -6045 0
-2234 -6046 0
-2235 -6047 0
-2236 -6048 0
-2233 -2985 0
-2234 -2986 0
-2235 -2987 0
-2236 -2988 0
-2233 -4525 0
-2234 -4526 0
-2235 -4527 0
-2236 -4528 0
-2233 -3529 0
-2234 -3530 0
-2235 -3531 0
-2236 -3532 0
-2233 -3545 0
-2234 -3546 0
-2235 -3547 0
-2236 -3548 0
-2233 -3561 0
-2234 -3562 0
-2235 -3563 0
-2236 -3564 0
-2233 -5613 0
-2234 -5614 0
-2235 -5615 0
-2236 -5616 0
-2237 -4125 0
-2238 -4126 0
-2239 -4127 0
-2240 -4128 0
-2237 -3121 0
-2238 -3122 0
-2239 -3123 0
-2240 -3124 0
-2237 -5301 0
-2238 -5302 0
-2239 -5303 0
-2240 -5304 0
-2237 -2245 0
-2238 -2246 0
-2239 -2247 0
-2240 -2248 0
-2237 -2757 0
-2238 -2758 0
-2239 -2759 0
-2240 -2760 0
-2237 -5317 0
-2238 -5318 0
-2239 -5319 0
-2240 -5320 0
-2237 -2261 0
-2238 -2262 0
-2239 -2263 0
-2240 -2264 0
-2237 -3289 0
-2238 -3290 0
-2239 -3291 0
-2240 -3292 0
-2237 -5333 0
-2238 -5334 0
-2239 -5335 0
-2240 -5336 0
-2237 -3313 0
-2238 -3314 0
-2239 -3315 0
-2240 -3316 0
-2237 -3333 0
-2238 -3334 0
-2239 -3335 0
-2240 -3336 0
-2237 -3857 0
-2238 -3858 0
-2239 -3859 0
-2240 -3860 0
-2237 -3349 0
-2238 -3350 0
-2239 -3351 0
-2240 -3352 0
-2237 -3869 0
-2238 -3870 0
-2239 -3871 0
-2240 -3872 0
-2237 -5985 0
-2238 -5986 0
-2239 -5987 0
-2240 -5988 0
-2237 -2421 0
-2238 -2422 0
-2239 -2423 0
-2240 -2424 0
-2237 -2937 0
-2238 -2938 0
-2239 -2939 0
-2240 -2940 0
-2237 -5005 0
-2238 -5006 0
-2239 -5007 0
-2240 -5008 0
-2237 -3473 0
-2238 -3474 0
-2239 -3475 0
-2240 -3476 0
-2237 -3509 0
-2238 -3510 0
-2239 -3511 0
-2240 -3512 0
-2237 -3549 0
-2238 -3550 0
-2239 -3551 0
-2240 -3552 0
-2237 -6129 0
-2238 -6130 0
-2239 -6131 0
-2240 -6132 0
-2237 -3577 0
-2238 -3578 0
-2239 -3579 0
-2240 -3580 0
-2241 -2437 0
-2242 -2438 0
-2243 -2439 0
-2244 -2440 0
-2241 -3077 0
-2242 -3078 0
-2243 -3079 0
-2244 -3080 0
-2241 -3353 0
-2242 -3354 0
-2243 -3355 0
-2244 -3356 0
-2241 -4129 0
-2242 -4130 0
-2243 -4131 0
-2244 -4132 0
-2241 -4133 0
-2242 -4134 0
-2243 -4135 0
-2244 -4136 0
-2241 -4397 0
-2242 -4398 0
-2243 -4399 0
-2244 -4400 0
-2241 -5477 0
-2242 -5478 0
-2243 -5479 0
-2244 -5480 0
-2241 -3129 0
-2242 -3130 0
-2243 -3131 0
-2244 -3132 0
-2241 -3145 0
-2242 -3146 0
-2243 -3147 0
-2244 -3148 0
-2241 -2765 0
-2242 -2766 0
-2243 -2767 0
-2244 -2768 0
-2241 -2401 0
-2242 -2402 0
-2243 -2403 0
-2244 -2404 0
-2241 -4197 0
-2242 -4198 0
-2243 -4199 0
-2244 -4200 0
-2241 -2413 0
-2242 -2414 0
-2243 -2415 0
-2244 -2416 0
-2245 -2445 0
-2246 -2446 0
-2247 -2447 0
-2248 -2448 0
-2245 -3865 0
-2246 -3866 0
-2247 -3867 0
-2248 -3868 0
-2245 -4137 0
-2246 -4138 0
-2247 -4139 0
-2248 -4140 0
-2245 -3137 0
-2246 -3138 0
-2247 -3139 0
-2248 -3140 0
-2245 -5329 0
-2246 -5330 0
-2247 -5331 0
-2248 -5332 0
-2245 -2905 0
-2246 -2906 0
-2247 -2907 0
-2248 -2908 0
-2249 -3145 0
-2250 -3146 0
-2251 -3147 0
-2252 -3148 0
-2249 -3673 0
-2250 -3674 0
-2251 -3675 0
-2252 -3676 0
-2249 -5341 0
-2250 -5342 0
-2251 -5343 0
-2252 -5344 0
-2249 -2413 0
-2250 -2414 0
-2251 -2415 0
-2252 -2416 0
-2253 -4625 0
-2254 -4626 0
-2255 -4627 0
-2256 -4628 0
-2253 -3093 0
-2254 -3094 0
-2255 -3095 0
-2256 -3096 0
-2253 -2593 0
-2254 -2594 0
-2255 -2595 0
-2256 -2596 0
-2253 -4141 0
-2254 -4142 0
-2255 -4143 0
-2256 -4144 0
-2253 -3677 0
-2254 -3678 0
-2255 -3679 0
-2256 -3680 0
-2253 -3693 0
-2254 -3694 0
-2255 -3695 0
-2256 -3696 0
-2253 -3221 0
-2254 -3222 0
-2255 -3223 0
-2256 -3224 0
-2253 -5813 0
-2254 -5814 0
-2255 -5815 0
-2256 -5816 0
-2253 -2257 0
-2254 -2258 0
-2255 -2259 0
-2256 -2260 0
-2253 -3297 0
-2254 -3298 0
-2255 -3299 0
-2256 -3300 0
-2253 -2305 0
-2254 -2306 0
-2255 -2307 0
-2256 -2308 0
-2253 -4881 0
-2254 -4882 0
-2255 -4883 0
-2256 -4884 0
-2253 -3361 0
-2254 -3362 0
-2255 -3363 0
-2256 -3364 0
-2253 -4949 0
-2254 -4950 0
-2255 -4951 0
-2256 -4952 0
-2253 -2921 0
-2254 -2922 0
-2255 -2923 0
-2256 -2924 0
-2253 -2437 0
-2254 -2438 0
-2255 -2439 0
-2256 -2440 0
-2253 -2965 0
-2254 -2966 0
-2255 -2967 0
-2256 -2968 0
-2253 -6053 0
-2254 -6054 0
-2255 -6055 0
-2256 -6056 0
-2253 -4529 0
-2254 -4530 0
-2255 -4531 0
-2256 -4532 0
-2253 -6137 0
-2254 -6138 0
-2255 -6139 0
-2256 -6140 0
-2257 -4633 0
-2258 -4634 0
-2259 -4635 0
-2260 -4636 0
-2257 -3101 0
-2258 -3102 0
-2259 -3103 0
-2260 -3104 0
-2257 -4145 0
-2258 -4146 0
-2259 -4147 0
-2260 -4148 0
-2257 -4149 0
-2258 -4150 0
-2259 -4151 0
-2260 -4152 0
-2257 -3161 0
-2258 -3162 0
-2259 -3163 0
-2260 -3164 0
-2257 -3173 0
-2258 -3174 0
-2259 -3175 0
-2260 -3176 0
-2257 -3233 0
-2258 -3234 0
-2259 -3235 0
-2260 -3236 0
-2257 -6141 0
-2258 -6142 0
-2259 -6143 0
-2260 -6144 0
-2257 -5313 0
-2258 -5314 0
-2259 -5315 0
-2260 -5316 0
-2257 -2261 0
-2258 -2262 0
-2259 -2263 0
-2260 -2264 0
-2257 -2265 0
-2258 -2266 0
-2259 -2267 0
-2260 -2268 0
-2257 -5345 0
-2258 -5346 0
-2259 -5347 0
-2260 -5348 0
-2257 -5877 0
-2258 -5878 0
-2259 -5879 0
-2260 -5880 0
-2257 -2309 0
-2258 -2310 0
-2259 -2311 0
-2260 -2312 0
-2257 -3877 0
-2258 -3878 0
-2259 -3879 0
-2260 -3880 0
-2257 -3369 0
-2258 -3370 0
-2259 -3371 0
-2260 -3372 0
-2257 -3881 0
-2258 -3882 0
-2259 -3883 0
-2260 -3884 0
-2257 -4893 0
-2258 -4894 0
-2259 -4895 0
-2260 -4896 0
-2257 -3385 0
-2258 -3386 0
-2259 -3387 0
-2260 -3388 0
-2257 -4417 0
-2258 -4418 0
-2259 -4419 0
-2260 -4420 0
-2257 -4957 0
-2258 -4958 0
-2259 -4959 0
-2260 -4960 0
-2257 -2449 0
-2258 -2450 0
-2259 -2451 0
-2260 -2452 0
-2257 -3481 0
-2258 -3482 0
-2259 -3483 0
-2260 -3484 0
-2257 -3489 0
-2258 -3490 0
-2259 -3491 0
-2260 -3492 0
-2257 -6049 0
-2258 -6050 0
-2259 -6051 0
-2260 -6052 0
-2257 -4533 0
-2258 -4534 0
-2259 -4535 0
-2260 -4536 0
-2257 -6077 0
-2258 -6078 0
-2259 -6079 0
-2260 -6080 0
-2257 -5629 0
-2258 -5630 0
-2259 -5631 0
-2260 -5632 0
-2261 -2597 0
-2262 -2598 0
-2263 -2599 0
-2264 -2600 0
-2261 -4897 0
-2262 -4898 0
-2263 -4899 0
-2264 -4900 0
-2261 -3373 0
-2262 -3374 0
-2263 -3375 0
-2264 -3376 0
-2261 -4145 0
-2262 -4146 0
-2263 -4147 0
-2264 -4148 0
-2261 -3701 0
-2262 -3702 0
-2263 -3703 0
-2264 -3704 0
-2261 -5317 0
-2262 -5318 0
-2263 -5319 0
-2264 -5320 0
-2261 -5341 0
-2262 -5342 0
-2263 -5343 0
-2264 -5344 0
-2261 -5241 0
-2262 -5242 0
-2263 -5243 0
-2264 -5244 0
-2265 -3485 0
-2266 -3486 0
-2267 -3487 0
-2268 -3488 0
-2265 -3377 0
-2266 -3378 0
-2267 -3379 0
-2268 -3380 0
-2265 -3393 0
-2266 -3394 0
-2267 -3395 0
-2268 -3396 0
-2265 -5325 0
-2266 -5326 0
-2267 -5327 0
-2268 -5328 0
-2265 -3169 0
-2266 -3170 0
-2267 -3171 0
-2268 -3172 0
-2265 -4709 0
-2266 -4710 0
-2267 -4711 0
-2268 -4712 0
-2269 -2693 0
-2270 -2694 0
-2271 -2695 0
-2272 -2696 0
-2269 -2449 0
-2270 -2450 0
-2271 -2451 0
-2272 -2452 0
-2269 -2973 0
-2270 -2974 0
-2271 -2975 0
-2272 -2976 0
-2269 -4641 0
-2270 -4642 0
-2271 -4643 0
-2272 -4644 0
-2269 -2725 0
-2270 -2726 0
-2271 -2727 0
-2272 -2728 0
-2269 -3121 0
-2270 -3122 0
-2271 -3123 0
-2272 -3124 0
-2269 -3501 0
-2270 -3502 0
-2271 -3503 0
-2272 -3504 0
-2269 -4149 0
-2270 -4150 0
-2271 -4151 0
-2272 -4152 0
-2269 -5553 0
-2270 -5554 0
-2271 -5555 0
-2272 -5556 0
-2269 -5345 0
-2270 -5346 0
-2271 -5347 0
-2272 -5348 0
-2269 -2297 0
-2270 -2298 0
-2271 -2299 0
-2272 -2300 0
-2273 -2945 0
-2274 -2946 0
-2275 -2947 0
-2276 -2948 0
-2273 -4233 0
-2274 -4234 0
-2275 -4235 0
-2276 -4236 0
-2273 -5397 0
-2274 -5398 0
-2275 -5399 0
-2276 -5400 0
-2273 -3749 0
-2274 -3750 0
-2275 -3751 0
-2276 -3752 0
-2273 -4649 0
-2274 -4650 0
-2275 -4651 0
-2276 -4652 0
-2273 -2349 0
-2274 -2350 0
-2275 -2351 0
-2276 -2352 0
-2273 -4161 0
-2274 -4162 0
-2275 -4163 0
-2276 -4164 0
-2273 -3537 0
-2274 -3538 0
-2275 -3539 0
-2276 -3540 0
-2273 -3581 0
-2274 -3582 0
-2275 -3583 0
-2276 -3584 0
-2273 -2289 0
-2274 -2290 0
-2275 -2291 0
-2276 -2292 0
-2277 -4661 0
-2278 -4662 0
-2279 -4663 0
-2280 -4664 0
-2277 -4165 0
-2278 -4166 0
-2279 -4167 0
-2280 -4168 0
-2277 -4249 0
-2278 -4250 0
-2279 -4251 0
-2280 -4252 0
-2277 -3757 0
-2278 -3758 0
-2279 -3759 0
-2280 -3760 0
-2277 -2281 0
-2278 -2282 0
-2279 -2283 0
-2280 -2284 0
-2277 -2289 0
-2278 -2290 0
-2279 -2291 0
-2280 -2292 0
-2277 -2301 0
-2278 -2302 0
-2279 -2303 0
-2280 -2304 0
-2277 -5401 0
-2278 -5402 0
-2279 -5403 0
-2280 -5404 0
-2277 -5917 0
-2278 -5918 0
-2279 -5919 0
-2280 -5920 0
-2277 -2457 0
-2278 -2458 0
-2279 -2459 0
-2280 -2460 0
-2277 -4549 0
-2278 -4550 0
-2279 -4551 0
-2280 -4552 0
-2277 -3529 0
-2278 -3530 0
-2279 -3531 0
-2280 -3532 0
-2281 -4665 0
-2282 -4666 0
-2283 -4667 0
-2284 -4668 0
-2281 -4165 0
-2282 -4166 0
-2283 -4167 0
-2284 -4168 0
-2281 -3761 0
-2282 -3762 0
-2283 -3763 0
-2284 -3764 0
-2281 -2745 0
-2282 -2746 0
-2283 -2747 0
-2284 -2748 0
-2281 -2285 0
-2282 -2286 0
-2283 -2287 0
-2284 -2288 0
-2281 -5357 0
-2282 -5358 0
-2283 -5359 0
-2284 -5360 0
-2281 -5885 0
-2282 -5886 0
-2283 -5887 0
-2284 -5888 0
-2281 -3381 0
-2282 -3382 0
-2283 -3383 0
-2284 -3384 0
-2281 -2369 0
-2282 -2370 0
-2283 -2371 0
-2284 -2372 0
-2281 -2953 0
-2282 -2954 0
-2283 -2955 0
-2284 -2956 0
-2281 -2461 0
-2282 -2462 0
-2283 -2463 0
-2284 -2464 0
-2281 -5069 0
-2282 -5070 0
-2283 -5071 0
-2284 -5072 0
-2285 -3753 0
-2286 -3754 0
-2287 -3755 0
-2288 -3756 0
-2285 -5033 0
-2286 -5034 0
-2287 -5035 0
-2288 -5036 0
-2285 -3385 0
-2286 -3386 0
-2287 -3387 0
-2288 -3388 0
-2285 -2749 0
-2286 -2750 0
-2287 -2751 0
-2288 -2752 0
-2285 -3905 0
-2286 -3906 0
-2287 -3907 0
-2288 -3908 0
-2285 -3533 0
-2286 -3534 0
-2287 -3535 0
-2288 -3536 0
-2285 -4169 0
-2286 -4170 0
-2287 -4171 0
-2288 -4172 0
-2285 -3545 0
-2286 -3546 0
-2287 -3547 0
-2288 -3548 0
-2289 -5657 0
-2290 -5658 0
-2291 -5659 0
-2292 -5660 0
-2289 -4645 0
-2290 -4646 0
-2291 -4647 0
-2292 -4648 0
-2289 -4673 0
-2290 -4674 0
-2291 -4675 0
-2292 -4676 0
-2289 -4173 0
-2290 -4174 0
-2291 -4175 0
-2292 -4176 0
-2289 -3213 0
-2290 -3214 0
-2291 -3215 0
-2292 -3216 0
-2289 -4257 0
-2290 -4258 0
-2291 -4259 0
-2292 -4260 0
-2289 -5837 0
-2290 -5838 0
-2291 -5839 0
-2292 -5840 0
-2289 -2305 0
-2290 -2306 0
-2291 -2307 0
-2292 -2308 0
-2289 -2317 0
-2290 -2318 0
-2291 -2319 0
-2292 -2320 0
-2289 -5405 0
-2290 -5406 0
-2291 -5407 0
-2292 -5408 0
-2289 -3389 0
-2290 -3390 0
-2291 -3391 0
-2292 -3392 0
-2289 -3909 0
-2290 -3910 0
-2291 -3911 0
-2292 -3912 0
-2289 -3921 0
-2290 -3922 0
-2291 -3923 0
-2292 -3924 0
-2289 -4981 0
-2290 -4982 0
-2291 -4983 0
-2292 -4984 0
-2289 -5021 0
-2290 -5022 0
-2291 -5023 0
-2292 -5024 0
-2289 -2465 0
-2290 -2466 0
-2291 -2467 0
-2292 -2468 0
-2289 -5037 0
-2290 -5038 0
-2291 -5039 0
-2292 -5040 0
-2289 -3533 0
-2290 -3534 0
-2291 -3535 0
-2292 -3536 0
-2289 -4557 0
-2290 -4558 0
-2291 -4559 0
-2292 -4560 0
-2293 -3217 0
-2294 -3218 0
-2295 -3219 0
-2296 -3220 0
-2293 -2461 0
-2294 -2462 0
-2295 -2463 0
-2296 -2464 0
-2293 -5661 0
-2294 -5662 0
-2295 -5663 0
-2296 -5664 0
-2293 -4561 0
-2294 -4562 0
-2295 -4563 0
-2296 -4564 0
-2293 -4085 0
-2294 -4086 0
-2295 -4087 0
-2296 -4088 0
-2293 -3325 0
-2294 -3326 0
-2295 -3327 0
-2296 -3328 0
-2297 -3337 0
-2298 -3338 0
-2299 -3339 0
-2300 -3340 0
-2297 -2961 0
-2298 -2962 0
-2299 -2963 0
-2300 -2964 0
-2297 -3221 0
-2298 -3222 0
-2299 -3223 0
-2300 -3224 0
-2297 -4757 0
-2298 -4758 0
-2299 -4759 0
-2300 -4760 0
-2297 -3509 0
-2298 -3510 0
-2299 -3511 0
-2300 -3512 0
-2297 -3405 0
-2298 -3406 0
-2299 -3407 0
-2300 -3408 0
-2297 -3925 0
-2298 -3926 0
-2299 -3927 0
-2300 -3928 0
-2301 -2305 0
-2302 -2306 0
-2303 -2307 0
-2304 -2308 0
-2301 -5913 0
-2302 -5914 0
-2303 -5915 0
-2304 -5916 0
-2301 -5921 0
-2302 -5922 0
-2303 -5923 0
-2304 -5924 0
-2301 -2473 0
-2302 -2474 0
-2303 -2475 0
-2304 -2476 0
-2301 -4653 0
-2302 -4654 0
-2303 -4655 0
-2304 -4656 0
-2301 -5045 0
-2302 -5046 0
-2303 -5047 0
-2304 -5048 0
-2301 -3521 0
-2302 -3522 0
-2303 -3523 0
-2304 -3524 0
-2301 -4685 0
-2302 -4686 0
-2303 -4687 0
-2304 -4688 0
-2301 -4189 0
-2302 -4190 0
-2303 -4191 0
-2304 -4192 0
-2301 -5481 0
-2302 -5482 0
-2303 -5483 0
-2304 -5484 0
-2301 -5369 0
-2302 -5370 0
-2303 -5371 0
-2304 -5372 0
-2305 -3589 0
-2306 -3590 0
-2307 -3591 0
-2308 -3592 0
-2305 -2601 0
-2306 -2602 0
-2307 -2603 0
-2308 -2604 0
-2305 -4661 0
-2306 -4662 0
-2307 -4663 0
-2308 -4664 0
-2305 -4689 0
-2306 -4690 0
-2307 -4691 0
-2308 -4692 0
-2305 -3201 0
-2306 -3202 0
-2307 -3203 0
-2308 -3204 0
-2305 -3257 0
-2306 -3258 0
-2307 -3259 0
-2308 -3260 0
-2305 -2765 0
-2306 -2766 0
-2307 -2767 0
-2308 -2768 0
-2305 -5853 0
-2306 -5854 0
-2307 -5855 0
-2308 -5856 0
-2305 -2309 0
-2306 -2310 0
-2307 -2311 0
-2308 -2312 0
-2305 -3357 0
-2306 -3358 0
-2307 -3359 0
-2308 -3360 0
-2305 -5917 0
-2306 -5918 0
-2307 -5919 0
-2308 -5920 0
-2305 -5925 0
-2306 -5926 0
-2307 -5927 0
-2308 -5928 0
-2305 -4929 0
-2306 -4930 0
-2307 -4931 0
-2308 -4932 0
-2305 -3429 0
-2306 -3430 0
-2307 -3431 0
-2308 -3432 0
-2305 -4993 0
-2306 -4994 0
-2307 -4995 0
-2308 -4996 0
-2305 -2965 0
-2306 -2966 0
-2307 -2967 0
-2308 -2968 0
-2305 -2993 0
-2306 -2994 0
-2307 -2995 0
-2308 -2996 0
-2305 -5053 0
-2306 -5054 0
-2307 -5055 0
-2308 -5056 0
-2305 -3529 0
-2306 -3530 0
-2307 -3531 0
-2308 -3532 0
-2305 -3553 0
-2306 -3554 0
-2307 -3555 0
-2308 -3556 0
-2305 -3557 0
-2306 -3558 0
-2307 -3559 0
-2308 -3560 0
-2309 -3601 0
-2310 -3602 0
-2311 -3603 0
-2312 -3604 0
-2309 -3237 0
-2310 -3238 0
-2311 -3239 0
-2312 -3240 0
-2309 -2485 0
-2310 -2486 0
-2311 -2487 0
-2312 -2488 0
-2309 -4673 0
-2310 -4674 0
-2311 -4675 0
-2312 -4676 0
-2309 -3533 0
-2310 -3534 0
-2311 -3535 0
-2312 -3536 0
-2309 -3933 0
-2310 -3934 0
-2311 -3935 0
-2312 -3936 0
-2309 -5989 0
-2310 -5990 0
-2311 -5991 0
-2312 -5992 0
-2309 -3437 0
-2310 -3438 0
-2311 -3439 0
-2312 -3440 0
-2313 -2437 0
-2314 -2438 0
-2315 -2439 0
-2316 -2440 0
-2313 -3945 0
-2314 -3946 0
-2315 -3947 0
-2316 -3948 0
-2313 -2317 0
-2314 -2318 0
-2315 -2319 0
-2316 -2320 0
-2313 -4229 0
-2314 -4230 0
-2315 -4231 0
-2316 -4232 0
-2313 -4233 0
-2314 -4234 0
-2315 -4235 0
-2316 -4236 0
-2313 -5093 0
-2314 -5094 0
-2315 -5095 0
-2316 -5096 0
-2313 -3617 0
-2314 -3618 0
-2315 -3619 0
-2316 -3620 0
-2313 -4969 0
-2314 -4970 0
-2315 -4971 0
-2316 -4972 0
-2313 -3249 0
-2314 -3250 0
-2315 -3251 0
-2316 -3252 0
-2313 -3557 0
-2314 -3558 0
-2315 -3559 0
-2316 -3560 0
-2313 -5489 0
-2314 -5490 0
-2315 -5491 0
-2316 -5492 0
-2313 -4601 0
-2314 -4602 0
-2315 -4603 0
-2316 -4604 0
-2317 -2441 0
-2318 -2442 0
-2319 -2443 0
-2320 -2444 0
-2317 -4233 0
-2318 -4234 0
-2319 -4235 0
-2320 -4236 0
-2317 -4237 0
-2318 -4238 0
-2319 -4239 0
-2320 -4240 0
-2317 -3621 0
-2318 -3622 0
-2319 -3623 0
-2320 -3624 0
-2317 -5457 0
-2318 -5458 0
-2319 -5459 0
-2320 -5460 0
-2317 -4697 0
-2318 -4698 0
-2319 -4699 0
-2320 -4700 0
-2321 -5017 0
-2322 -5018 0
-2323 -5019 0
-2324 -5020 0
-2321 -2353 0
-2322 -2354 0
-2323 -2355 0
-2324 -2356 0
-2321 -2609 0
-2322 -2610 0
-2323 -2611 0
-2324 -2612 0
-2321 -3001 0
-2322 -3002 0
-2323 -3003 0
-2324 -3004 0
-2321 -3265 0
-2322 -3266 0
-2323 -3267 0
-2324 -3268 0
-2321 -3293 0
-2322 -3294 0
-2323 -3295 0
-2324 -3296 0
-2321 -2633 0
-2322 -2634 0
-2323 -2635 0
-2324 -2636 0
-2321 -3037 0
-2322 -3038 0
-2323 -3039 0
-2324 -3040 0
-2321 -3953 0
-2322 -3954 0
-2323 -3955 0
-2324 -3956 0
-2325 -5381 0
-2326 -5382 0
-2327 -5383 0
-2328 -5384 0
-2325 -3093 0
-2326 -3094 0
-2327 -3095 0
-2328 -3096 0
-2325 -3349 0
-2326 -3350 0
-2327 -3351 0
-2328 -3352 0
-2325 -2749 0
-2326 -2750 0
-2327 -2751 0
-2328 -2752 0
-2325 -2369 0
-2326 -2370 0
-2327 -2371 0
-2328 -2372 0
-2325 -4301 0
-2326 -4302 0
-2327 -4303 0
-2328 -4304 0
-2325 -3565 0
-2326 -3566 0
-2327 -3567 0
-2328 -3568 0
-2325 -3569 0
-2326 -3570 0
-2327 -3571 0
-2328 -3572 0
-2329 -3329 0
-2330 -3330 0
-2331 -3331 0
-2332 -3332 0
-2329 -4237 0
-2330 -4238 0
-2331 -4239 0
-2332 -4240 0
-2329 -3477 0
-2330 -3478 0
-2331 -3479 0
-2332 -3480 0
-2329 -3609 0
-2330 -3610 0
-2331 -3611 0
-2332 -3612 0
-2329 -5029 0
-2330 -5030 0
-2331 -5031 0
-2332 -5032 0
-2329 -4273 0
-2330 -4274 0
-2331 -4275 0
-2332 -4276 0
-2329 -3129 0
-2330 -3130 0
-2331 -3131 0
-2332 -3132 0
-2329 -2365 0
-2330 -2366 0
-2331 -2367 0
-2332 -2368 0
-2329 -3385 0
-2330 -3386 0
-2331 -3387 0
-2332 -3388 0
-2329 -3273 0
-2330 -3274 0
-2331 -3275 0
-2332 -3276 0
-2329 -5601 0
-2330 -5602 0
-2331 -5603 0
-2332 -5604 0
-2329 -3313 0
-2330 -3314 0
-2331 -3315 0
-2332 -3316 0
-2333 -3093 0
-2334 -3094 0
-2335 -3095 0
-2336 -3096 0
-2333 -5397 0
-2334 -5398 0
-2335 -5399 0
-2336 -5400 0
-2333 -2353 0
-2334 -2354 0
-2335 -2355 0
-2336 -2356 0
-2333 -2885 0
-2334 -2886 0
-2335 -2887 0
-2336 -2888 0
-2333 -3013 0
-2334 -3014 0
-2335 -3015 0
-2336 -3016 0
-2333 -2389 0
-2334 -2390 0
-2335 -2391 0
-2336 -2392 0
-2333 -3289 0
-2334 -3290 0
-2335 -3291 0
-2336 -3292 0
-2333 -4333 0
-2334 -4334 0
-2335 -4335 0
-2336 -4336 0
-2333 -3957 0
-2334 -3958 0
-2335 -3959 0
-2336 -3960 0
-2333 -3449 0
-2334 -3450 0
-2335 -3451 0
-2336 -3452 0
-2337 -2341 0
-2338 -2342 0
-2339 -2343 0
-2340 -2344 0
-2337 -3113 0
-2338 -3114 0
-2339 -3115 0
-2340 -3116 0
-2337 -2349 0
-2338 -2350 0
-2339 -2351 0
-2340 -2352 0
-2337 -5045 0
-2338 -5046 0
-2339 -5047 0
-2340 -5048 0
-2337 -3297 0
-2338 -3298 0
-2339 -3299 0
-2340 -3300 0
-2337 -3037 0
-2338 -3038 0
-2339 -3039 0
-2340 -3040 0
-2337 -2401 0
-2338 -2402 0
-2339 -2403 0
-2340 -2404 0
-2337 -5869 0
-2338 -5870 0
-2339 -5871 0
-2340 -5872 0
-2337 -4349 0
-2338 -4350 0
-2339 -4351 0
-2340 -4352 0
-2341 -2569 0
-2342 -2570 0
-2343 -2571 0
-2344 -2572 0
-2341 -3117 0
-2342 -3118 0
-2343 -3119 0
-2344 -3120 0
-2341 -3681 0
-2342 -3682 0
-2343 -3683 0
-2344 -3684 0
-2341 -2661 0
-2342 -2662 0
-2343 -2663 0
-2344 -2664 0
-2341 -4277 0
-2342 -4278 0
-2343 -4279 0
-2344 -4280 0
-2341 -3785 0
-2342 -3786 0
-2343 -3787 0
-2344 -3788 0
-2341 -3793 0
-2342 -3794 0
-2343 -3795 0
-2344 -3796 0
-2341 -2777 0
-2342 -2778 0
-2343 -2779 0
-2344 -2780 0
-2341 -4353 0
-2342 -4354 0
-2343 -4355 0
-2344 -4356 0
-2341 -2821 0
-2342 -2822 0
-2343 -2823 0
-2344 -2824 0
-2341 -5401 0
-2342 -5402 0
-2343 -5403 0
-2344 -5404 0
-2341 -2353 0
-2342 -2354 0
-2343 -2355 0
-2344 -2356 0
-2341 -2369 0
-2342 -2370 0
-2343 -2371 0
-2344 -2372 0
-2341 -2405 0
-2342 -2406 0
-2343 -2407 0
-2344 -2408 0
-2341 -3453 0
-2342 -3454 0
-2343 -3455 0
-2344 -3456 0
-2341 -3969 0
-2342 -3970 0
-2343 -3971 0
-2344 -3972 0
-2341 -2489 0
-2342 -2490 0
-2343 -2491 0
-2344 -2492 0
-2341 -3025 0
-2342 -3026 0
-2343 -3027 0
-2344 -3028 0
-2341 -3041 0
-2342 -3042 0
-2343 -3043 0
-2344 -3044 0
-2341 -5625 0
-2342 -5626 0
-2343 -5627 0
-2344 -5628 0
-2345 -3329 0
-2346 -3330 0
-2347 -3331 0
-2348 -3332 0
-2345 -3617 0
-2346 -3618 0
-2347 -3619 0
-2348 -3620 0
-2345 -2349 0
-2346 -2350 0
-2347 -2351 0
-2348 -2352 0
-2345 -3125 0
-2346 -3126 0
-2347 -3127 0
-2348 -3128 0
-2345 -5049 0
-2346 -5050 0
-2347 -5051 0
-2348 -5052 0
-2345 -2373 0
-2346 -2374 0
-2347 -2375 0
-2348 -2376 0
-2345 -3045 0
-2346 -3046 0
-2347 -3047 0
-2348 -3048 0
-2349 -3621 0
-2350 -3622 0
-2351 -3623 0
-2352 -3624 0
-2349 -3129 0
-2350 -3130 0
-2351 -3131 0
-2352 -3132 0
-2349 -4281 0
-2350 -4282 0
-2351 -4283 0
-2352 -4284 0
-2349 -3281 0
-2350 -3282 0
-2351 -3283 0
-2352 -3284 0
-2349 -3321 0
-2350 -3322 0
-2351 -3323 0
-2352 -3324 0
-2349 -3333 0
-2350 -3334 0
-2351 -3335 0
-2352 -3336 0
-2349 -2829 0
-2350 -2830 0
-2351 -2831 0
-2352 -2832 0
-2349 -4357 0
-2350 -4358 0
-2351 -4359 0
-2352 -4360 0
-2349 -2353 0
-2350 -2354 0
-2351 -2355 0
-2352 -2356 0
-2349 -5957 0
-2350 -5958 0
-2351 -5959 0
-2352 -5960 0
-2349 -2921 0
-2350 -2922 0
-2351 -2923 0
-2352 -2924 0
-2349 -2409 0
-2350 -2410 0
-2351 -2411 0
-2352 -2412 0
-2349 -3977 0
-2350 -3978 0
-2351 -3979 0
-2352 -3980 0
-2349 -3477 0
-2350 -3478 0
-2351 -3479 0
-2352 -3480 0
-2349 -3497 0
-2350 -3498 0
-2351 -3499 0
-2352 -3500 0
-2349 -5053 0
-2350 -5054 0
-2351 -5055 0
-2352 -5056 0
-2349 -3033 0
-2350 -3034 0
-2351 -3035 0
-2352 -3036 0
-2349 -3049 0
-2350 -3050 0
-2351 -3051 0
-2352 -3052 0
-2353 -3589 0
-2354 -3590 0
-2355 -3591 0
-2356 -3592 0
-2353 -4617 0
-2354 -4618 0
-2355 -4619 0
-2356 -4620 0
-2353 -3613 0
-2354 -3614 0
-2355 -3615 0
-2356 -3616 0
-2353 -3133 0
-2354 -3134 0
-2355 -3135 0
-2356 -3136 0
-2353 -3653 0
-2354 -3654 0
-2355 -3655 0
-2356 -3656 0
-2353 -2649 0
-2354 -2650 0
-2355 -2651 0
-2356 -2652 0
-2353 -3681 0
-2354 -3682 0
-2355 -3683 0
-2356 -3684 0
-2353 -3685 0
-2354 -3686 0
-2355 -3687 0
-2356 -3688 0
-2353 -4705 0
-2354 -4706 0
-2355 -4707 0
-2356 -4708 0
-2353 -4709 0
-2354 -4710 0
-2355 -4711 0
-2356 -4712 0
-2353 -2673 0
-2354 -2674 0
-2355 -2675 0
-2356 -2676 0
-2353 -3193 0
-2354 -3194 0
-2355 -3195 0
-2356 -3196 0
-2353 -4281 0
-2354 -4282 0
-2355 -4283 0
-2356 -4284 0
-2353 -4285 0
-2354 -4286 0
-2355 -4287 0
-2356 -4288 0
-2353 -2781 0
-2354 -2782 0
-2355 -2783 0
-2356 -2784 0
-2353 -3297 0
-2354 -3298 0
-2355 -3299 0
-2356 -3300 0
-2353 -3337 0
-2354 -3338 0
-2355 -3339 0
-2356 -3340 0
-2353 -4361 0
-2354 -4362 0
-2355 -4363 0
-2356 -4364 0
-2353 -5397 0
-2354 -5398 0
-2355 -5399 0
-2356 -5400 0
-2353 -5405 0
-2354 -5406 0
-2355 -5407 0
-2356 -5408 0
-2353 -5409 0
-2354 -5410 0
-2355 -5411 0
-2356 -5412 0
-2353 -2357 0
-2354 -2358 0
-2355 -2359 0
-2356 -2360 0
-2353 -2361 0
-2354 -2362 0
-2355 -2363 0
-2356 -2364 0
-2353 -2377 0
-2354 -2378 0
-2355 -2379 0
-2356 -2380 0
-2353 -2413 0
-2354 -2414 0
-2355 -2415 0
-2356 -2416 0
-2353 -2925 0
-2354 -2926 0
-2355 -2927 0
-2356 -2928 0
-2353 -3457 0
-2354 -3458 0
-2355 -3459 0
-2356 -3460 0
-2353 -3481 0
-2354 -3482 0
-2355 -3483 0
-2356 -3484 0
-2353 -3037 0
-2354 -3038 0
-2355 -3039 0
-2356 -3040 0
-2353 -3501 0
-2354 -3502 0
-2355 -3503 0
-2356 -3504 0
-2353 -2497 0
-2354 -2498 0
-2355 -2499 0
-2356 -2500 0
-2353 -2501 0
-2354 -2502 0
-2355 -2503 0
-2356 -2504 0
-2353 -3053 0
-2354 -3054 0
-2355 -3055 0
-2356 -3056 0
-2353 -3569 0
-2354 -3570 0
-2355 -3571 0
-2356 -3572 0
-2357 -2929 0
-2358 -2930 0
-2359 -2931 0
-2360 -2932 0
-2357 -5901 0
-2358 -5902 0
-2359 -5903 0
-2360 -5904 0
-2357 -4285 0
-2358 -4286 0
-2359 -4287 0
-2360 -4288 0
-2357 -3041 0
-2358 -3042 0
-2359 -3043 0
-2360 -3044 0
-2357 -3137 0
-2358 -3138 0
-2359 -3139 0
-2360 -3140 0
-2357 -3793 0
-2358 -3794 0
-2359 -3795 0
-2360 -3796 0
-2357 -2785 0
-2358 -2786 0
-2359 -2787 0
-2360 -2788 0
-2357 -2417 0
-2358 -2418 0
-2359 -2419 0
-2360 -2420 0
-2361 -3977 0
-2362 -3978 0
-2363 -3979 0
-2364 -3980 0
-2361 -2829 0
-2362 -2830 0
-2363 -2831 0
-2364 -2832 0
-2361 -3601 0
-2362 -3602 0
-2363 -3603 0
-2364 -3604 0
-2361 -5005 0
-2362 -5006 0
-2363 -5007 0
-2364 -5008 0
-2361 -3485 0
-2362 -3486 0
-2363 -3487 0
-2364 -3488 0
-2361 -3505 0
-2362 -3506 0
-2363 -3507 0
-2364 -3508 0
-2361 -3145 0
-2362 -3146 0
-2363 -3147 0
-2364 -3148 0
-2361 -3685 0
-2362 -3686 0
-2363 -3687 0
-2364 -3688 0
-2361 -3049 0
-2362 -3050 0
-2363 -3051 0
-2364 -3052 0
-2361 -2425 0
-2362 -2426 0
-2363 -2427 0
-2364 -2428 0
-2365 -3981 0
-2366 -3982 0
-2367 -3983 0
-2368 -3984 0
-2365 -4457 0
-2366 -4458 0
-2367 -4459 0
-2368 -4460 0
-2365 -3097 0
-2366 -3098 0
-2367 -3099 0
-2368 -3100 0
-2365 -3489 0
-2366 -3490 0
-2367 -3491 0
-2368 -3492 0
-2365 -2489 0
-2366 -2490 0
-2367 -2491 0
-2368 -2492 0
-2365 -3513 0
-2366 -3514 0
-2367 -3515 0
-2368 -3516 0
-2365 -4817 0
-2366 -4818 0
-2367 -4819 0
-2368 -4820 0
-2365 -4189 0
-2366 -4190 0
-2367 -4191 0
-2368 -4192 0
-2365 -3305 0
-2366 -3306 0
-2367 -3307 0
-2368 -3308 0
-2365 -3569 0
-2366 -3570 0
-2367 -3571 0
-2368 -3572 0
-2365 -2429 0
-2366 -2430 0
-2367 -2431 0
-2368 -2432 0
-2369 -5129 0
-2370 -5130 0
-2371 -5131 0
-2372 -5132 0
-2369 -3597 0
-2370 -3598 0
-2371 -3599 0
-2372 -3600 0
-2369 -3609 0
-2370 -3610 0
-2371 -3611 0
-2372 -3612 0
-2369 -3621 0
-2370 -3622 0
-2371 -3623 0
-2372 -3624 0
-2369 -3161 0
-2370 -3162 0
-2371 -3163 0
-2372 -3164 0
-2369 -2677 0
-2370 -2678 0
-2371 -2679 0
-2372 -2680 0
-2369 -3201 0
-2370 -3202 0
-2371 -3203 0
-2372 -3204 0
-2369 -4289 0
-2370 -4290 0
-2371 -4291 0
-2372 -4292 0
-2369 -2841 0
-2370 -2842 0
-2371 -2843 0
-2372 -2844 0
-2369 -5401 0
-2370 -5402 0
-2371 -5403 0
-2372 -5404 0
-2369 -2377 0
-2370 -2378 0
-2371 -2379 0
-2372 -2380 0
-2369 -2381 0
-2370 -2382 0
-2371 -2383 0
-2372 -2384 0
-2369 -3061 0
-2370 -3062 0
-2371 -3063 0
-2372 -3064 0
-2373 -2437 0
-2374 -2438 0
-2375 -2439 0
-2376 -2440 0
-2373 -4381 0
-2374 -4382 0
-2375 -4383 0
-2376 -4384 0
-2373 -3369 0
-2374 -3370 0
-2375 -3371 0
-2376 -3372 0
-2373 -4461 0
-2374 -4462 0
-2375 -4463 0
-2376 -4464 0
-2373 -2501 0
-2374 -2502 0
-2375 -2503 0
-2376 -2504 0
-2373 -4293 0
-2374 -4294 0
-2375 -4295 0
-2376 -4296 0
-2373 -4557 0
-2374 -4558 0
-2375 -4559 0
-2376 -4560 0
-2373 -3313 0
-2374 -3314 0
-2375 -3315 0
-2376 -3316 0
-2373 -4833 0
-2374 -4834 0
-2375 -4835 0
-2376 -4836 0
-2377 -2445 0
-2378 -2446 0
-2379 -2447 0
-2380 -2448 0
-2377 -3605 0
-2378 -3606 0
-2379 -3607 0
-2380 -3608 0
-2377 -5017 0
-2378 -5018 0
-2379 -5019 0
-2380 -5020 0
-2377 -4385 0
-2378 -4386 0
-2379 -4387 0
-2380 -4388 0
-2377 -5405 0
-2378 -5406 0
-2379 -5407 0
-2380 -5408 0
-2377 -3293 0
-2378 -3294 0
-2379 -3295 0
-2380 -3296 0
-2377 -3509 0
-2378 -3510 0
-2379 -3511 0
-2380 -3512 0
-2377 -4297 0
-2378 -4298 0
-2379 -4299 0
-2380 -4300 0
-2377 -3169 0
-2378 -3170 0
-2379 -3171 0
-2380 -3172 0
-2377 -3057 0
-2378 -3058 0
-2379 -3059 0
-2380 -3060 0
-2381 -3585 0
-2382 -3586 0
-2383 -3587 0
-2384 -3588 0
-2381 -5497 0
-2382 -5498 0
-2383 -5499 0
-2384 -5500 0
-2381 -3221 0
-2382 -3222 0
-2383 -3223 0
-2384 -3224 0
-2381 -3629 0
-2382 -3630 0
-2383 -3631 0
-2384 -3632 0
-2381 -3649 0
-2382 -3650 0
-2383 -3651 0
-2384 -3652 0
-2381 -4301 0
-2382 -4302 0
-2383 -4303 0
-2384 -4304 0
-2381 -3065 0
-2382 -3066 0
-2383 -3067 0
-2384 -3068 0
-2385 -3093 0
-2386 -3094 0
-2387 -3095 0
-2388 -3096 0
-2385 -3477 0
-2386 -3478 0
-2387 -3479 0
-2388 -3480 0
-2385 -5661 0
-2386 -5662 0
-2387 -5663 0
-2388 -5664 0
-2385 -4009 0
-2386 -4010 0
-2387 -4011 0
-2388 -4012 0
-2385 -2865 0
-2386 -2866 0
-2387 -2867 0
-2388 -2868 0
-2385 -5425 0
-2386 -5426 0
-2387 -5427 0
-2388 -5428 0
-2385 -4409 0
-2386 -4410 0
-2387 -4411 0
-2388 -4412 0
-2385 -2401 0
-2386 -2402 0
-2387 -2403 0
-2388 -2404 0
-2385 -5493 0
-2386 -5494 0
-2387 -5495 0
-2388 -5496 0
-2389 -3093 0
-2390 -3094 0
-2391 -3095 0
-2392 -3096 0
-2389 -3621 0
-2390 -3622 0
-2391 -3623 0
-2392 -3624 0
-2389 -5185 0
-2390 -5186 0
-2391 -5187 0
-2392 -5188 0
-2389 -5709 0
-2390 -5710 0
-2391 -5711 0
-2392 -5712 0
-2389 -2677 0
-2390 -2678 0
-2391 -2679 0
-2392 -2680 0
-2389 -3201 0
-2390 -3202 0
-2391 -3203 0
-2392 -3204 0
-2389 -4313 0
-2390 -4314 0
-2391 -4315 0
-2392 -4316 0
-2389 -5413 0
-2390 -5414 0
-2391 -5415 0
-2392 -5416 0
-2389 -2865 0
-2390 -2866 0
-2391 -2867 0
-2392 -2868 0
-2389 -2877 0
-2390 -2878 0
-2391 -2879 0
-2392 -2880 0
-2389 -5437 0
-2390 -5438 0
-2391 -5439 0
-2392 -5440 0
-2389 -5449 0
-2390 -5450 0
-2391 -5451 0
-2392 -5452 0
-2389 -2413 0
-2390 -2414 0
-2391 -2415 0
-2392 -2416 0
-2389 -3485 0
-2390 -3486 0
-2391 -3487 0
-2392 -3488 0
-2389 -4009 0
-2390 -4010 0
-2391 -4011 0
-2392 -4012 0
-2393 -3853 0
-2394 -3854 0
-2395 -3855 0
-2396 -3856 0
-2393 -3117 0
-2394 -3118 0
-2395 -3119 0
-2396 -3120 0
-2393 -5097 0
-2394 -5098 0
-2395 -5099 0
-2396 -5100 0
-2393 -4421 0
-2394 -4422 0
-2395 -4423 0
-2396 -4424 0
-2393 -2401 0
-2394 -2402 0
-2395 -2403 0
-2396 -2404 0
-2393 -3689 0
-2394 -3690 0
-2395 -3691 0
-2396 -3692 0
-2393 -6005 0
-2394 -6006 0
-2395 -6007 0
-2396 -6008 0
-2397 -4625 0
-2398 -4626 0
-2399 -4627 0
-2400 -4628 0
-2397 -2457 0
-2398 -2458 0
-2399 -2459 0
-2400 -2460 0
-2397 -3353 0
-2398 -3354 0
-2399 -3355 0
-2400 -3356 0
-2397 -3129 0
-2398 -3130 0
-2399 -3131 0
-2400 -3132 0
-2397 -4025 0
-2398 -4026 0
-2399 -4027 0
-2400 -4028 0
-2397 -4425 0
-2398 -4426 0
-2399 -4427 0
-2400 -4428 0
-2397 -5973 0
-2398 -5974 0
-2399 -5975 0
-2400 -5976 0
-2397 -4317 0
-2398 -4318 0
-2399 -4319 0
-2400 -4320 0
-2397 -2401 0
-2398 -2402 0
-2399 -2403 0
-2400 -2404 0
-2401 -3609 0
-2402 -3610 0
-2403 -3611 0
-2404 -3612 0
-2401 -4629 0
-2402 -4630 0
-2403 -4631 0
-2404 -4632 0
-2401 -3113 0
-2402 -3114 0
-2403 -3115 0
-2404 -3116 0
-2401 -3625 0
-2402 -3626 0
-2403 -3627 0
-2404 -3628 0
-2401 -3133 0
-2402 -3134 0
-2403 -3135 0
-2404 -3136 0
-2401 -3657 0
-2402 -3658 0
-2403 -3659 0
-2404 -3660 0
-2401 -3689 0
-2402 -3690 0
-2403 -3691 0
-2404 -3692 0
-2401 -3693 0
-2402 -3694 0
-2403 -3695 0
-2404 -3696 0
-2401 -4713 0
-2402 -4714 0
-2403 -4715 0
-2404 -4716 0
-2401 -4721 0
-2402 -4722 0
-2403 -4723 0
-2404 -4724 0
-2401 -3205 0
-2402 -3206 0
-2403 -3207 0
-2404 -3208 0
-2401 -3745 0
-2402 -3746 0
-2403 -3747 0
-2404 -3748 0
-2401 -3249 0
-2402 -3250 0
-2403 -3251 0
-2404 -3252 0
-2401 -4765 0
-2402 -4766 0
-2403 -4767 0
-2404 -4768 0
-2401 -4317 0
-2402 -4318 0
-2403 -4319 0
-2404 -4320 0
-2401 -4321 0
-2402 -4322 0
-2403 -4323 0
-2404 -4324 0
-2401 -3849 0
-2402 -3850 0
-2403 -3851 0
-2404 -3852 0
-2401 -3345 0
-2402 -3346 0
-2403 -3347 0
-2404 -3348 0
-2401 -3861 0
-2402 -3862 0
-2403 -3863 0
-2404 -3864 0
-2401 -3357 0
-2402 -3358 0
-2403 -3359 0
-2404 -3360 0
-2401 -5425 0
-2402 -5426 0
-2403 -5427 0
-2404 -5428 0
-2401 -4429 0
-2402 -4430 0
-2403 -4431 0
-2404 -4432 0
-2401 -2901 0
-2402 -2902 0
-2403 -2903 0
-2404 -2904 0
-2401 -3413 0
-2402 -3414 0
-2403 -3415 0
-2404 -3416 0
-2401 -2405 0
-2402 -2406 0
-2403 -2407 0
-2404 -2408 0
-2401 -2409 0
-2402 -2410 0
-2403 -2411 0
-2404 -2412 0
-2401 -5453 0
-2402 -5454 0
-2403 -5455 0
-2404 -5456 0
-2401 -3445 0
-2402 -3446 0
-2403 -3447 0
-2404 -3448 0
-2401 -2433 0
-2402 -2434 0
-2403 -2435 0
-2404 -2436 0
-2401 -2461 0
-2402 -2462 0
-2403 -2463 0
-2404 -2464 0
-2401 -4017 0
-2402 -4018 0
-2403 -4019 0
-2404 -4020 0
-2401 -4029 0
-2402 -4030 0
-2403 -4031 0
-2404 -4032 0
-2401 -2505 0
-2402 -2506 0
-2403 -2507 0
-2404 -2508 0
-2401 -2509 0
-2402 -2510 0
-2403 -2511 0
-2404 -2512 0
-2401 -2517 0
-2402 -2518 0
-2403 -2519 0
-2404 -2520 0
-2401 -3537 0
-2402 -3538 0
-2403 -3539 0
-2404 -3540 0
-2401 -4589 0
-2402 -4590 0
-2403 -4591 0
-2404 -4592 0
-2405 -5137 0
-2406 -5138 0
-2407 -5139 0
-2408 -5140 0
-2405 -3117 0
-2406 -3118 0
-2407 -3119 0
-2408 -3120 0
-2405 -3137 0
-2406 -3138 0
-2407 -3139 0
-2408 -3140 0
-2405 -3697 0
-2406 -3698 0
-2407 -3699 0
-2408 -3700 0
-2405 -3209 0
-2406 -3210 0
-2407 -3211 0
-2408 -3212 0
-2405 -4321 0
-2406 -4322 0
-2407 -4323 0
-2408 -4324 0
-2405 -4325 0
-2406 -4326 0
-2407 -4327 0
-2408 -4328 0
-2405 -2805 0
-2406 -2806 0
-2407 -2807 0
-2408 -2808 0
-2405 -3853 0
-2406 -3854 0
-2407 -3855 0
-2408 -3856 0
-2405 -3865 0
-2406 -3866 0
-2407 -3867 0
-2408 -3868 0
-2405 -4433 0
-2406 -4434 0
-2407 -4435 0
-2408 -4436 0
-2405 -2905 0
-2406 -2906 0
-2407 -2907 0
-2408 -2908 0
-2405 -3417 0
-2406 -3418 0
-2407 -3419 0
-2408 -3420 0
-2405 -2413 0
-2406 -2414 0
-2407 -2415 0
-2408 -2416 0
-2405 -5101 0
-2406 -5102 0
-2407 -5103 0
-2408 -5104 0
-2405 -6141 0
-2406 -6142 0
-2407 -6143 0
-2408 -6144 0
-2409 -3593 0
-2410 -3594 0
-2411 -3595 0
-2412 -3596 0
-2409 -5673 0
-2410 -5674 0
-2411 -5675 0
-2412 -5676 0
-2409 -3129 0
-2410 -3130 0
-2411 -3131 0
-2412 -3132 0
-2409 -3145 0
-2410 -3146 0
-2411 -3147 0
-2412 -3148 0
-2409 -3693 0
-2410 -3694 0
-2411 -3695 0
-2412 -3696 0
-2409 -3217 0
-2410 -3218 0
-2411 -3219 0
-2412 -3220 0
-2409 -4333 0
-2410 -4334 0
-2411 -4335 0
-2412 -4336 0
-2409 -3353 0
-2410 -3354 0
-2411 -3355 0
-2412 -3356 0
-2409 -5433 0
-2410 -5434 0
-2411 -5435 0
-2412 -5436 0
-2409 -4441 0
-2410 -4442 0
-2411 -4443 0
-2412 -4444 0
-2409 -2413 0
-2410 -2414 0
-2411 -2415 0
-2412 -2416 0
-2409 -2421 0
-2410 -2422 0
-2411 -2423 0
-2412 -2424 0
-2409 -5493 0
-2410 -5494 0
-2411 -5495 0
-2412 -5496 0
-2409 -2441 0
-2410 -2442 0
-2411 -2443 0
-2412 -2444 0
-2409 -2965 0
-2410 -2966 0
-2411 -2967 0
-2412 -2968 0
-2409 -5037 0
-2410 -5038 0
-2411 -5039 0
-2412 -5040 0
-2409 -4025 0
-2410 -4026 0
-2411 -4027 0
-2412 -4028 0
-2409 -4041 0
-2410 -4042 0
-2411 -4043 0
-2412 -4044 0
-2409 -5621 0
-2410 -5622 0
-2411 -5623 0
-2412 -5624 0
-2413 -3597 0
-2414 -3598 0
-2415 -3599 0
-2416 -3600 0
-2413 -4637 0
-2414 -4638 0
-2415 -4639 0
-2416 -4640 0
-2413 -3629 0
-2414 -3630 0
-2415 -3631 0
-2416 -3632 0
-2413 -3133 0
-2414 -3134 0
-2415 -3135 0
-2416 -3136 0
-2413 -3649 0
-2414 -3650 0
-2415 -3651 0
-2416 -3652 0
-2413 -3149 0
-2414 -3150 0
-2415 -3151 0
-2416 -3152 0
-2413 -3661 0
-2414 -3662 0
-2415 -3663 0
-2416 -3664 0
-2413 -4717 0
-2414 -4718 0
-2415 -4719 0
-2416 -4720 0
-2413 -3697 0
-2414 -3698 0
-2415 -3699 0
-2416 -3700 0
-2413 -3701 0
-2414 -3702 0
-2415 -3703 0
-2416 -3704 0
-2413 -4725 0
-2414 -4726 0
-2415 -4727 0
-2416 -4728 0
-2413 -3221 0
-2414 -3222 0
-2415 -3223 0
-2416 -3224 0
-2413 -4765 0
-2414 -4766 0
-2415 -4767 0
-2416 -4768 0
-2413 -3745 0
-2414 -3746 0
-2415 -3747 0
-2416 -3748 0
-2413 -3253 0
-2414 -3254 0
-2415 -3255 0
-2416 -3256 0
-2413 -4333 0
-2414 -4334 0
-2415 -4335 0
-2416 -4336 0
-2413 -4337 0
-2414 -4338 0
-2415 -4339 0
-2416 -4340 0
-2413 -3861 0
-2414 -3862 0
-2415 -3863 0
-2416 -3864 0
-2413 -3357 0
-2414 -3358 0
-2415 -3359 0
-2416 -3360 0
-2413 -3873 0
-2414 -3874 0
-2415 -3875 0
-2416 -3876 0
-2413 -5437 0
-2414 -5438 0
-2415 -5439 0
-2416 -5440 0
-2413 -5457 0
-2414 -5458 0
-2415 -5459 0
-2416 -5460 0
-2413 -2901 0
-2414 -2902 0
-2415 -2903 0
-2416 -2904 0
-2413 -4445 0
-2414 -4446 0
-2415 -4447 0
-2416 -4448 0
-2413 -2913 0
-2414 -2914 0
-2415 -2915 0
-2416 -2916 0
-2413 -2417 0
-2414 -2418 0
-2415 -2419 0
-2416 -2420 0
-2413 -2425 0
-2414 -2426 0
-2415 -2427 0
-2416 -2428 0
-2413 -3449 0
-2414 -3450 0
-2415 -3451 0
-2416 -3452 0
-2413 -2445 0
-2414 -2446 0
-2415 -2447 0
-2416 -2448 0
-2413 -2469 0
-2414 -2470 0
-2415 -2471 0
-2416 -2472 0
-2413 -3493 0
-2414 -3494 0
-2415 -3495 0
-2416 -3496 0
-2413 -4029 0
-2414 -4030 0
-2415 -4031 0
-2416 -4032 0
-2413 -2505 0
-2414 -2506 0
-2415 -2507 0
-2416 -2508 0
-2413 -2513 0
-2414 -2514 0
-2415 -2515 0
-2416 -2516 0
-2413 -3545 0
-2414 -3546 0
-2415 -3547 0
-2416 -3548 0
-2417 -3601 0
-2418 -3602 0
-2419 -3603 0
-2420 -3604 0
-2417 -5909 0
-2418 -5910 0
-2419 -5911 0
-2420 -5912 0
-2417 -3225 0
-2418 -3226 0
-2419 -3227 0
-2420 -3228 0
-2417 -3865 0
-2418 -3866 0
-2419 -3867 0
-2420 -3868 0
-2417 -3137 0
-2418 -3138 0
-2419 -3139 0
-2420 -3140 0
-2417 -2905 0
-2418 -2906 0
-2419 -2907 0
-2420 -2908 0
-2417 -3549 0
-2418 -3550 0
-2419 -3551 0
-2420 -3552 0
-2417 -4337 0
-2418 -4338 0
-2419 -4339 0
-2420 -4340 0
-2421 -6017 0
-2422 -6018 0
-2423 -6019 0
-2424 -6020 0
-2421 -3589 0
-2422 -3590 0
-2423 -3591 0
-2424 -3592 0
-2421 -5497 0
-2422 -5498 0
-2423 -5499 0
-2424 -5500 0
-2421 -6145 0
-2422 -6146 0
-2423 -6147 0
-2424 -6148 0
-2421 -5145 0
-2422 -5146 0
-2423 -5147 0
-2424 -5148 0
-2421 -3637 0
-2422 -3638 0
-2423 -3639 0
-2424 -3640 0
-2421 -3141 0
-2422 -3142 0
-2423 -3143 0
-2424 -3144 0
-2421 -4037 0
-2422 -4038 0
-2423 -4039 0
-2424 -4040 0
-2421 -3153 0
-2422 -3154 0
-2423 -3155 0
-2424 -3156 0
-2421 -5461 0
-2422 -5462 0
-2423 -5463 0
-2424 -5464 0
-2421 -2909 0
-2422 -2910 0
-2423 -2911 0
-2424 -2912 0
-2421 -4341 0
-2422 -4342 0
-2423 -4343 0
-2424 -4344 0
-2421 -2425 0
-2422 -2426 0
-2423 -2427 0
-2424 -2428 0
-2425 -3605 0
-2426 -3606 0
-2427 -3607 0
-2428 -3608 0
-2425 -3233 0
-2426 -3234 0
-2427 -3235 0
-2428 -3236 0
-2425 -3641 0
-2426 -3642 0
-2427 -3643 0
-2428 -3644 0
-2425 -3701 0
-2426 -3702 0
-2427 -3703 0
-2428 -3704 0
-2425 -5441 0
-2426 -5442 0
-2427 -5443 0
-2428 -5444 0
-2425 -3145 0
-2426 -3146 0
-2427 -3147 0
-2428 -3148 0
-2425 -4041 0
-2426 -4042 0
-2427 -4043 0
-2428 -4044 0
-2425 -4341 0
-2426 -4342 0
-2427 -4343 0
-2428 -4344 0
-2429 -4361 0
-2430 -4362 0
-2431 -4363 0
-2432 -4364 0
-2429 -3597 0
-2430 -3598 0
-2431 -3599 0
-2432 -3600 0
-2429 -3369 0
-2430 -3370 0
-2431 -3371 0
-2432 -3372 0
-2429 -3505 0
-2430 -3506 0
-2431 -3507 0
-2432 -3508 0
-2429 -3645 0
-2430 -3646 0
-2431 -3647 0
-2432 -3648 0
-2429 -3317 0
-2430 -3318 0
-2431 -3319 0
-2432 -3320 0
-2433 -5141 0
-2434 -5142 0
-2435 -5143 0
-2436 -5144 0
-2433 -5165 0
-2434 -5166 0
-2435 -5167 0
-2436 -5168 0
-2433 -3633 0
-2434 -3634 0
-2435 -3635 0
-2436 -3636 0
-2433 -3169 0
-2434 -3170 0
-2435 -3171 0
-2436 -3172 0
-2433 -2809 0
-2434 -2810 0
-2435 -2811 0
-2436 -2812 0
-2433 -4349 0
-2434 -4350 0
-2435 -4351 0
-2436 -4352 0
-2433 -4353 0
-2434 -4354 0
-2435 -4355 0
-2436 -4356 0
-2433 -3381 0
-2434 -3382 0
-2435 -3383 0
-2436 -3384 0
-2433 -3393 0
-2434 -3394 0
-2435 -3395 0
-2436 -3396 0
-2433 -5453 0
-2434 -5454 0
-2435 -5455 0
-2436 -5456 0
-2433 -4449 0
-2434 -4450 0
-2435 -4451 0
-2436 -4452 0
-2433 -6013 0
-2434 -6014 0
-2435 -6015 0
-2436 -6016 0
-2433 -2441 0
-2434 -2442 0
-2435 -2443 0
-2436 -2444 0
-2433 -2449 0
-2434 -2450 0
-2435 -2451 0
-2436 -2452 0
-2433 -2477 0
-2434 -2478 0
-2435 -2479 0
-2436 -2480 0
-2433 -5045 0
-2434 -5046 0
-2435 -5047 0
-2436 -5048 0
-2433 -4049 0
-2434 -4050 0
-2435 -4051 0
-2436 -4052 0
-2433 -4057 0
-2434 -4058 0
-2435 -4059 0
-2436 -4060 0
-2437 -3665 0
-2438 -3666 0
-2439 -3667 0
-2440 -3668 0
-2437 -3177 0
-2438 -3178 0
-2439 -3179 0
-2440 -3180 0
-2437 -3329 0
-2438 -3330 0
-2439 -3331 0
-2440 -3332 0
-2437 -4357 0
-2438 -4358 0
-2439 -4359 0
-2440 -4360 0
-2437 -4373 0
-2438 -4374 0
-2439 -4375 0
-2440 -4376 0
-2437 -3389 0
-2438 -3390 0
-2439 -3391 0
-2440 -3392 0
-2437 -3397 0
-2438 -3398 0
-2439 -3399 0
-2440 -3400 0
-2437 -3417 0
-2438 -3418 0
-2439 -3419 0
-2440 -3420 0
-2437 -3437 0
-2438 -3438 0
-2439 -3439 0
-2440 -3440 0
-2437 -2441 0
-2438 -2442 0
-2439 -2443 0
-2440 -2444 0
-2437 -5049 0
-2438 -5050 0
-2439 -5051 0
-2440 -5052 0
-2437 -2517 0
-2438 -2518 0
-2439 -2519 0
-2440 -2520 0
-2437 -4061 0
-2438 -4062 0
-2439 -4063 0
-2440 -4064 0
-2437 -5117 0
-2438 -5118 0
-2439 -5119 0
-2440 -5120 0
-2441 -3609 0
-2442 -3610 0
-2443 -3611 0
-2444 -3612 0
-2441 -3645 0
-2442 -3646 0
-2443 -3647 0
-2444 -3648 0
-2441 -3165 0
-2442 -3166 0
-2443 -3167 0
-2444 -3168 0
-2441 -3181 0
-2442 -3182 0
-2443 -3183 0
-2444 -3184 0
-2441 -4721 0
-2442 -4722 0
-2443 -4723 0
-2444 -4724 0
-2441 -3241 0
-2442 -3242 0
-2443 -3243 0
-2444 -3244 0
-2441 -5373 0
-2442 -5374 0
-2443 -5375 0
-2444 -5376 0
-2441 -3333 0
-2442 -3334 0
-2443 -3335 0
-2444 -3336 0
-2441 -4357 0
-2442 -4358 0
-2443 -4359 0
-2444 -4360 0
-2441 -4361 0
-2442 -4362 0
-2443 -4363 0
-2444 -4364 0
-2441 -5957 0
-2442 -5958 0
-2443 -5959 0
-2444 -5960 0
-2441 -2445 0
-2442 -2446 0
-2443 -2447 0
-2444 -2448 0
-2441 -5053 0
-2442 -5054 0
-2443 -5055 0
-2444 -5056 0
-2445 -3337 0
-2446 -3338 0
-2447 -3339 0
-2448 -3340 0
-2445 -4361 0
-2446 -4362 0
-2447 -4363 0
-2448 -4364 0
-2445 -2977 0
-2446 -2978 0
-2447 -2979 0
-2448 -2980 0
-2445 -3245 0
-2446 -3246 0
-2447 -3247 0
-2448 -3248 0
-2445 -5177 0
-2446 -5178 0
-2447 -5179 0
-2448 -5180 0
-2445 -3393 0
-2446 -3394 0
-2447 -3395 0
-2448 -3396 0
-2445 -3169 0
-2446 -3170 0
-2447 -3171 0
-2448 -3172 0
-2445 -5457 0
-2446 -5458 0
-2447 -5459 0
-2448 -5460 0
-2445 -4057 0
-2446 -4058 0
-2447 -4059 0
-2448 -4060 0
-2449 -4377 0
-2450 -4378 0
-2451 -4379 0
-2452 -4380 0
-2449 -5185 0
-2450 -5186 0
-2451 -5187 0
-2452 -5188 0
-2449 -3557 0
-2450 -3558 0
-2451 -3559 0
-2452 -3560 0
-2449 -3189 0
-2450 -3190 0
-2451 -3191 0
-2452 -3192 0
-2453 -3621 0
-2454 -3622 0
-2455 -3623 0
-2456 -3624 0
-2453 -4389 0
-2454 -4390 0
-2455 -4391 0
-2456 -4392 0
-2453 -3249 0
-2454 -3250 0
-2455 -3251 0
-2456 -3252 0
-2453 -3537 0
-2454 -3538 0
-2455 -3539 0
-2456 -3540 0
-2453 -5213 0
-2454 -5214 0
-2455 -5215 0
-2456 -5216 0
-2453 -4065 0
-2454 -4066 0
-2455 -4067 0
-2456 -4068 0
-2453 -3689 0
-2454 -3690 0
-2455 -3691 0
-2456 -3692 0
-2453 -3193 0
-2454 -3194 0
-2455 -3195 0
-2456 -3196 0
-2457 -3217 0
-2458 -3218 0
-2459 -3219 0
-2460 -3220 0
-2457 -2461 0
-2458 -2462 0
-2459 -2463 0
-2460 -2464 0
-2457 -2465 0
-2458 -2466 0
-2459 -2467 0
-2460 -2468 0
-2457 -2473 0
-2458 -2474 0
-2459 -2475 0
-2460 -2476 0
-2457 -4661 0
-2458 -4662 0
-2459 -4663 0
-2460 -4664 0
-2457 -4409 0
-2458 -4410 0
-2459 -4411 0
-2460 -4412 0
-2457 -5757 0
-2458 -5758 0
-2459 -5759 0
-2460 -5760 0
-2457 -4733 0
-2458 -4734 0
-2459 -4735 0
-2460 -4736 0
-2461 -5125 0
-2462 -5126 0
-2463 -5127 0
-2464 -5128 0
-2461 -5661 0
-2462 -5662 0
-2463 -5663 0
-2464 -5664 0
-2461 -4665 0
-2462 -4666 0
-2463 -4667 0
-2464 -4668 0
-2461 -5697 0
-2462 -5698 0
-2463 -5699 0
-2464 -5700 0
-2461 -5237 0
-2462 -5238 0
-2463 -5239 0
-2464 -5240 0
-2461 -3205 0
-2462 -3206 0
-2463 -3207 0
-2464 -3208 0
-2461 -3221 0
-2462 -3222 0
-2463 -3223 0
-2464 -3224 0
-2461 -4409 0
-2462 -4410 0
-2463 -4411 0
-2464 -4412 0
-2461 -4413 0
-2462 -4414 0
-2463 -4415 0
-2464 -4416 0
-2461 -3913 0
-2462 -3914 0
-2463 -3915 0
-2464 -3916 0
-2461 -3925 0
-2462 -3926 0
-2463 -3927 0
-2464 -3928 0
-2461 -5465 0
-2462 -5466 0
-2463 -5467 0
-2464 -5468 0
-2461 -4489 0
-2462 -4490 0
-2463 -4491 0
-2464 -4492 0
-2461 -2961 0
-2462 -2962 0
-2463 -2963 0
-2464 -2964 0
-2461 -3477 0
-2462 -3478 0
-2463 -3479 0
-2464 -3480 0
-2461 -2477 0
-2462 -2478 0
-2463 -2479 0
-2464 -2480 0
-2465 -4737 0
-2466 -4738 0
-2467 -4739 0
-2468 -4740 0
-2465 -5765 0
-2466 -5766 0
-2467 -5767 0
-2468 -5768 0
-2465 -6025 0
-2466 -6026 0
-2467 -6027 0
-2468 -6028 0
-2465 -3625 0
-2466 -3626 0
-2467 -3627 0
-2468 -3628 0
-2465 -3385 0
-2466 -3386 0
-2467 -3387 0
-2468 -3388 0
-2465 -4673 0
-2466 -4674 0
-2467 -4675 0
-2468 -4676 0
-2465 -5093 0
-2466 -5094 0
-2467 -5095 0
-2468 -5096 0
-2469 -2961 0
-2470 -2962 0
-2471 -2963 0
-2472 -2964 0
-2469 -3221 0
-2470 -3222 0
-2471 -3223 0
-2472 -3224 0
-2469 -3485 0
-2470 -3486 0
-2471 -3487 0
-2472 -3488 0
-2469 -3637 0
-2470 -3638 0
-2471 -3639 0
-2472 -3640 0
-2469 -3257 0
-2470 -3258 0
-2471 -3259 0
-2472 -3260 0
-2469 -4417 0
-2470 -4418 0
-2471 -4419 0
-2472 -4420 0
-2469 -5185 0
-2470 -5186 0
-2471 -5187 0
-2472 -5188 0
-2469 -3925 0
-2470 -3926 0
-2471 -3927 0
-2472 -3928 0
-2473 -3241 0
-2474 -3242 0
-2475 -3243 0
-2476 -3244 0
-2473 -2477 0
-2474 -2478 0
-2475 -2479 0
-2476 -2480 0
-2473 -4425 0
-2474 -4426 0
-2475 -4427 0
-2476 -4428 0
-2473 -4429 0
-2474 -4430 0
-2475 -4431 0
-2476 -4432 0
-2473 -4685 0
-2474 -4686 0
-2475 -4687 0
-2476 -4688 0
-2473 -5973 0
-2474 -5974 0
-2475 -5975 0
-2476 -5976 0
-2473 -3677 0
-2474 -3678 0
-2475 -3679 0
-2476 -3680 0
-2473 -5213 0
-2474 -5214 0
-2475 -5215 0
-2476 -5216 0
-2477 -2969 0
-2478 -2970 0
-2479 -2971 0
-2480 -2972 0
-2477 -3245 0
-2478 -3246 0
-2479 -3247 0
-2480 -3248 0
-2477 -4429 0
-2478 -4430 0
-2479 -4431 0
-2480 -4432 0
-2477 -4433 0
-2478 -4434 0
-2479 -4435 0
-2480 -4436 0
-2477 -3413 0
-2478 -3414 0
-2479 -3415 0
-2480 -3416 0
-2477 -5217 0
-2478 -5218 0
-2479 -5219 0
-2480 -5220 0
-2481 -3457 0
-2482 -3458 0
-2483 -3459 0
-2484 -3460 0
-2481 -5137 0
-2482 -5138 0
-2483 -5139 0
-2484 -5140 0
-2481 -4517 0
-2482 -4518 0
-2483 -4519 0
-2484 -4520 0
-2481 -4785 0
-2482 -4786 0
-2483 -4787 0
-2484 -4788 0
-2481 -3261 0
-2482 -3262 0
-2483 -3263 0
-2484 -3264 0
-2481 -3657 0
-2482 -3658 0
-2483 -3659 0
-2484 -3660 0
-2481 -3025 0
-2482 -3026 0
-2483 -3027 0
-2484 -3028 0
-2481 -2545 0
-2482 -2546 0
-2483 -2547 0
-2484 -2548 0
-2481 -3581 0
-2482 -3582 0
-2483 -3583 0
-2484 -3584 0
-2485 -4373 0
-2486 -4374 0
-2487 -4375 0
-2488 -4376 0
-2485 -3609 0
-2486 -3610 0
-2487 -3611 0
-2488 -3612 0
-2485 -4393 0
-2486 -4394 0
-2487 -4395 0
-2488 -4396 0
-2485 -4913 0
-2486 -4914 0
-2487 -4915 0
-2488 -4916 0
-2489 -3617 0
-2490 -3618 0
-2491 -3619 0
-2492 -3620 0
-2489 -3677 0
-2490 -3678 0
-2491 -3679 0
-2492 -3680 0
-2489 -5217 0
-2490 -5218 0
-2491 -5219 0
-2492 -5220 0
-2489 -5277 0
-2490 -5278 0
-2491 -5279 0
-2492 -5280 0
-2489 -4821 0
-2490 -4822 0
-2491 -4823 0
-2492 -4824 0
-2489 -3301 0
-2490 -3302 0
-2491 -3303 0
-2492 -3304 0
-2489 -3361 0
-2490 -3362 0
-2491 -3363 0
-2492 -3364 0
-2489 -3985 0
-2490 -3986 0
-2491 -3987 0
-2492 -3988 0
-2489 -4513 0
-2490 -4514 0
-2491 -4515 0
-2492 -4516 0
-2489 -4517 0
-2490 -4518 0
-2491 -4519 0
-2492 -4520 0
-2489 -2493 0
-2490 -2494 0
-2491 -2495 0
-2492 -2496 0
-2489 -2497 0
-2490 -2498 0
-2491 -2499 0
-2492 -2500 0
-2489 -3545 0
-2490 -3546 0
-2491 -3547 0
-2492 -3548 0
-2493 -5137 0
-2494 -5138 0
-2495 -5139 0
-2496 -5140 0
-2493 -3609 0
-2494 -3610 0
-2495 -3611 0
-2496 -3612 0
-2493 -3621 0
-2494 -3622 0
-2495 -3623 0
-2496 -3624 0
-2493 -3665 0
-2494 -3666 0
-2495 -3667 0
-2496 -3668 0
-2493 -3669 0
-2494 -3670 0
-2495 -3671 0
-2496 -3672 0
-2493 -3161 0
-2494 -3162 0
-2495 -3163 0
-2496 -3164 0
-2493 -4189 0
-2494 -4190 0
-2495 -4191 0
-2496 -4192 0
-2493 -5221 0
-2494 -5222 0
-2495 -5223 0
-2496 -5224 0
-2493 -3989 0
-2494 -3990 0
-2495 -3991 0
-2496 -3992 0
-2493 -4517 0
-2494 -4518 0
-2495 -4519 0
-2496 -4520 0
-2493 -4521 0
-2494 -4522 0
-2495 -4523 0
-2496 -4524 0
-2493 -3549 0
-2494 -3550 0
-2495 -3551 0
-2496 -3552 0
-2493 -3045 0
-2494 -3046 0
-2495 -3047 0
-2496 -3048 0
-2497 -3165 0
-2498 -3166 0
-2499 -3167 0
-2500 -3168 0
-2497 -4709 0
-2498 -4710 0
-2499 -4711 0
-2500 -4712 0
-2497 -5229 0
-2498 -5230 0
-2499 -5231 0
-2500 -5232 0
-2497 -4817 0
-2498 -4818 0
-2499 -4819 0
-2500 -4820 0
-2497 -3305 0
-2498 -3306 0
-2499 -3307 0
-2500 -3308 0
-2497 -3369 0
-2498 -3370 0
-2499 -3371 0
-2500 -3372 0
-2497 -5481 0
-2498 -5482 0
-2499 -5483 0
-2500 -5484 0
-2497 -3981 0
-2498 -3982 0
-2499 -3983 0
-2500 -3984 0
-2497 -4525 0
-2498 -4526 0
-2499 -4527 0
-2500 -4528 0
-2497 -3513 0
-2498 -3514 0
-2499 -3515 0
-2500 -3516 0
-2497 -2513 0
-2498 -2514 0
-2499 -2515 0
-2500 -2516 0
-2501 -3993 0
-2502 -3994 0
-2503 -3995 0
-2504 -3996 0
-2501 -5157 0
-2502 -5158 0
-2503 -5159 0
-2504 -5160 0
-2501 -3317 0
-2502 -3318 0
-2503 -3319 0
-2504 -3320 0
-2501 -3413 0
-2502 -3414 0
-2503 -3415 0
-2504 -3416 0
-2501 -4829 0
-2502 -4830 0
-2503 -4831 0
-2504 -4832 0
-2501 -5481 0
-2502 -5482 0
-2503 -5483 0
-2504 -5484 0
-2501 -3309 0
-2502 -3310 0
-2503 -3311 0
-2504 -3312 0
-2505 -3853 0
-2506 -3854 0
-2507 -3855 0
-2508 -3856 0
-2505 -3865 0
-2506 -3866 0
-2507 -3867 0
-2508 -3868 0
-2505 -3117 0
-2506 -3118 0
-2507 -3119 0
-2508 -3120 0
-2505 -3137 0
-2506 -3138 0
-2507 -3139 0
-2508 -3140 0
-2505 -3425 0
-2506 -3426 0
-2507 -3427 0
-2508 -3428 0
-2509 -4609 0
-2510 -4610 0
-2511 -4611 0
-2512 -4612 0
-2509 -5249 0
-2510 -5250 0
-2511 -5251 0
-2512 -5252 0
-2509 -4257 0
-2510 -4258 0
-2511 -4259 0
-2512 -4260 0
-2509 -3369 0
-2510 -3370 0
-2511 -3371 0
-2512 -3372 0
-2509 -3521 0
-2510 -3522 0
-2511 -3523 0
-2512 -3524 0
-2509 -4721 0
-2510 -4722 0
-2511 -4723 0
-2512 -4724 0
-2509 -4553 0
-2510 -4554 0
-2511 -4555 0
-2512 -4556 0
-2509 -4573 0
-2510 -4574 0
-2511 -4575 0
-2512 -4576 0
-2513 -3437 0
-2514 -3438 0
-2515 -3439 0
-2516 -3440 0
-2513 -4257 0
-2514 -4258 0
-2515 -4259 0
-2516 -4260 0
-2513 -3241 0
-2514 -3242 0
-2515 -3243 0
-2516 -3244 0
-2513 -3369 0
-2514 -3370 0
-2515 -3371 0
-2516 -3372 0
-2513 -3685 0
-2514 -3686 0
-2515 -3687 0
-2516 -3688 0
-2513 -4725 0
-2514 -4726 0
-2515 -4727 0
-2516 -4728 0
-2517 -5505 0
-2518 -5506 0
-2519 -5507 0
-2520 -5508 0
-2517 -4573 0
-2518 -4574 0
-2519 -4575 0
-2520 -4576 0
-2517 -4569 0
-2518 -4570 0
-2519 -4571 0
-2520 -4572 0
-2517 -3165 0
-2518 -3166 0
-2519 -3167 0
-2520 -3168 0
-2521 -5529 0
-2522 -5530 0
-2523 -5531 0
-2524 -5532 0
-2521 -5281 0
-2522 -5282 0
-2523 -5283 0
-2524 -5284 0
-2521 -3501 0
-2522 -3502 0
-2523 -3503 0
-2524 -3504 0
-2521 -3249 0
-2522 -3250 0
-2523 -3251 0
-2524 -3252 0
-2521 -4661 0
-2522 -4662 0
-2523 -4663 0
-2524 -4664 0
-2521 -5353 0
-2522 -5354 0
-2523 -5355 0
-2524 -5356 0
-2521 -4413 0
-2522 -4414 0
-2523 -4415 0
-2524 -4416 0
-2521 -3537 0
-2522 -3538 0
-2523 -3539 0
-2524 -3540 0
-2521 -4185 0
-2522 -4186 0
-2523 -4187 0
-2524 -4188 0
-2521 -2525 0
-2522 -2526 0
-2523 -2527 0
-2524 -2528 0
-2521 -3689 0
-2522 -3690 0
-2523 -3691 0
-2524 -3692 0
-2525 -2593 0
-2526 -2594 0
-2527 -2595 0
-2528 -2596 0
-2525 -3649 0
-2526 -3650 0
-2527 -3651 0
-2528 -3652 0
-2525 -4673 0
-2526 -4674 0
-2527 -4675 0
-2528 -4676 0
-2525 -3677 0
-2526 -3678 0
-2527 -3679 0
-2528 -3680 0
-2525 -3693 0
-2526 -3694 0
-2527 -3695 0
-2528 -3696 0
-2525 -5377 0
-2526 -5378 0
-2527 -5379 0
-2528 -5380 0
-2525 -3361 0
-2526 -3362 0
-2527 -3363 0
-2528 -3364 0
-2525 -4409 0
-2526 -4410 0
-2527 -4411 0
-2528 -4412 0
-2525 -4933 0
-2526 -4934 0
-2527 -4935 0
-2528 -4936 0
-2525 -2965 0
-2526 -2966 0
-2527 -2967 0
-2528 -2968 0
-2525 -5525 0
-2526 -5526 0
-2527 -5527 0
-2528 -5528 0
-2525 -3497 0
-2526 -3498 0
-2527 -3499 0
-2528 -3500 0
-2525 -3505 0
-2526 -3506 0
-2527 -3507 0
-2528 -3508 0
-2525 -6069 0
-2526 -6070 0
-2527 -6071 0
-2528 -6072 0
-2529 -4489 0
-2530 -4490 0
-2531 -4491 0
-2532 -4492 0
-2529 -6029 0
-2530 -6030 0
-2531 -6031 0
-2532 -6032 0
-2529 -5541 0
-2530 -5542 0
-2531 -5543 0
-2532 -5544 0
-2529 -4657 0
-2530 -4658 0
-2531 -4659 0
-2532 -4660 0
-2529 -4661 0
-2530 -4662 0
-2531 -4663 0
-2532 -4664 0
-2529 -5433 0
-2530 -5434 0
-2531 -5435 0
-2532 -5436 0
-2529 -2533 0
-2530 -2534 0
-2531 -2535 0
-2532 -2536 0
-2529 -2537 0
-2530 -2538 0
-2531 -2539 0
-2532 -2540 0
-2533 -4485 0
-2534 -4486 0
-2535 -4487 0
-2536 -4488 0
-2533 -4253 0
-2534 -4254 0
-2535 -4255 0
-2536 -4256 0
-2533 -3365 0
-2534 -3366 0
-2535 -3367 0
-2536 -3368 0
-2533 -4261 0
-2534 -4262 0
-2535 -4263 0
-2536 -4264 0
-2533 -3377 0
-2534 -3378 0
-2535 -3379 0
-2536 -3380 0
-2533 -4661 0
-2534 -4662 0
-2535 -4663 0
-2536 -4664 0
-2533 -4665 0
-2534 -4666 0
-2535 -4667 0
-2536 -4668 0
-2533 -5437 0
-2534 -5438 0
-2535 -5439 0
-2536 -5440 0
-2533 -5353 0
-2534 -5354 0
-2535 -5355 0
-2536 -5356 0
-2533 -2541 0
-2534 -2542 0
-2535 -2543 0
-2536 -2544 0
-2537 -4993 0
-2538 -4994 0
-2539 -4995 0
-2540 -4996 0
-2537 -4669 0
-2538 -4670 0
-2539 -4671 0
-2540 -4672 0
-2537 -4673 0
-2538 -4674 0
-2539 -4675 0
-2540 -4676 0
-2537 -2541 0
-2538 -2542 0
-2539 -2543 0
-2540 -2544 0
-2537 -4985 0
-2538 -4986 0
-2539 -4987 0
-2540 -4988 0
-2541 -4489 0
-2542 -4490 0
-2543 -4491 0
-2544 -4492 0
-2541 -5541 0
-2542 -5542 0
-2543 -5543 0
-2544 -5544 0
-2541 -3649 0
-2542 -3650 0
-2543 -3651 0
-2544 -3652 0
-2541 -4673 0
-2542 -4674 0
-2543 -4675 0
-2544 -4676 0
-2541 -4677 0
-2542 -4678 0
-2543 -4679 0
-2544 -4680 0
-2541 -5441 0
-2542 -5442 0
-2543 -5443 0
-2544 -5444 0
-2545 -2561 0
-2546 -2562 0
-2547 -2563 0
-2548 -2564 0
-2545 -3841 0
-2546 -3842 0
-2547 -3843 0
-2548 -3844 0
-2545 -3853 0
-2546 -3854 0
-2547 -3855 0
-2548 -3856 0
-2545 -4005 0
-2546 -4006 0
-2547 -4007 0
-2548 -4008 0
-2545 -5161 0
-2546 -5162 0
-2547 -5163 0
-2548 -5164 0
-2545 -4713 0
-2546 -4714 0
-2547 -4715 0
-2548 -4716 0
-2545 -2549 0
-2546 -2550 0
-2547 -2551 0
-2548 -2552 0
-2549 -2565 0
-2550 -2566 0
-2551 -2567 0
-2552 -2568 0
-2549 -2577 0
-2550 -2578 0
-2551 -2579 0
-2552 -2580 0
-2549 -5749 0
-2550 -5750 0
-2551 -5751 0
-2552 -5752 0
-2549 -4781 0
-2550 -4782 0
-2551 -4783 0
-2552 -4784 0
-2549 -4349 0
-2550 -4350 0
-2551 -4351 0
-2552 -4352 0
-2549 -3853 0
-2550 -3854 0
-2551 -3855 0
-2552 -3856 0
-2549 -3861 0
-2550 -3862 0
-2551 -3863 0
-2552 -3864 0
-2549 -4401 0
-2550 -4402 0
-2551 -4403 0
-2552 -4404 0
-2549 -4929 0
-2550 -4930 0
-2551 -4931 0
-2552 -4932 0
-2549 -6085 0
-2550 -6086 0
-2551 -6087 0
-2552 -6088 0
-2549 -2553 0
-2550 -2554 0
-2551 -2555 0
-2552 -2556 0
-2553 -4353 0
-2554 -4354 0
-2555 -4355 0
-2556 -4356 0
-2553 -3721 0
-2554 -3722 0
-2555 -3723 0
-2556 -3724 0
-2553 -3857 0
-2554 -3858 0
-2555 -3859 0
-2556 -3860 0
-2553 -3865 0
-2554 -3866 0
-2555 -3867 0
-2556 -3868 0
-2553 -4013 0
-2554 -4014 0
-2555 -4015 0
-2556 -4016 0
-2553 -4785 0
-2554 -4786 0
-2555 -4787 0
-2556 -4788 0
-2553 -4933 0
-2554 -4934 0
-2555 -4935 0
-2556 -4936 0
-2553 -3801 0
-2554 -3802 0
-2555 -3803 0
-2556 -3804 0
-2553 -4717 0
-2554 -4718 0
-2555 -4719 0
-2556 -4720 0
-2553 -2557 0
-2554 -2558 0
-2555 -2559 0
-2556 -2560 0
-2557 -4361 0
-2558 -4362 0
-2559 -4363 0
-2560 -4364 0
-2557 -3725 0
-2558 -3726 0
-2559 -3727 0
-2560 -3728 0
-2557 -3865 0
-2558 -3866 0
-2559 -3867 0
-2560 -3868 0
-2557 -3873 0
-2558 -3874 0
-2559 -3875 0
-2560 -3876 0
-2557 -3805 0
-2558 -3806 0
-2559 -3807 0
-2560 -3808 0
-2561 -2565 0
-2562 -2566 0
-2563 -2567 0
-2564 -2568 0
-2561 -2593 0
-2562 -2594 0
-2563 -2595 0
-2564 -2596 0
-2561 -5213 0
-2562 -5214 0
-2563 -5215 0
-2564 -5216 0
-2561 -3737 0
-2562 -3738 0
-2563 -3739 0
-2564 -3740 0
-2561 -4793 0
-2562 -4794 0
-2563 -4795 0
-2564 -4796 0
-2561 -2765 0
-2562 -2766 0
-2563 -2767 0
-2564 -2768 0
-2561 -3909 0
-2562 -3910 0
-2563 -3911 0
-2564 -3912 0
-2561 -4421 0
-2562 -4422 0
-2563 -4423 0
-2564 -4424 0
-2561 -3917 0
-2562 -3918 0
-2563 -3919 0
-2564 -3920 0
-2561 -5957 0
-2562 -5958 0
-2563 -5959 0
-2564 -5960 0
-2561 -4461 0
-2562 -4462 0
-2563 -4463 0
-2564 -4464 0
-2561 -5009 0
-2562 -5010 0
-2563 -5011 0
-2564 -5012 0
-2561 -5545 0
-2562 -5546 0
-2563 -5547 0
-2564 -5548 0
-2565 -6069 0
-2566 -6070 0
-2567 -6071 0
-2568 -6072 0
-2565 -3917 0
-2566 -3918 0
-2567 -3919 0
-2568 -3920 0
-2565 -4429 0
-2566 -4430 0
-2567 -4431 0
-2568 -4432 0
-2565 -3925 0
-2566 -3926 0
-2567 -3927 0
-2568 -3928 0
-2565 -4981 0
-2566 -4982 0
-2567 -4983 0
-2568 -4984 0
-2565 -4197 0
-2566 -4198 0
-2567 -4199 0
-2568 -4200 0
-2565 -4077 0
-2566 -4078 0
-2567 -4079 0
-2568 -4080 0
-2569 -4653 0
-2570 -4654 0
-2571 -4655 0
-2572 -4656 0
-2569 -5557 0
-2570 -5558 0
-2571 -5559 0
-2572 -5560 0
-2569 -3909 0
-2570 -3910 0
-2571 -3911 0
-2572 -3912 0
-2569 -4461 0
-2570 -4462 0
-2571 -4463 0
-2572 -4464 0
-2569 -4221 0
-2570 -4222 0
-2571 -4223 0
-2572 -4224 0
-2573 -4353 0
-2574 -4354 0
-2575 -4355 0
-2576 -4356 0
-2573 -3721 0
-2574 -3722 0
-2575 -3723 0
-2576 -3724 0
-2573 -2589 0
-2574 -2590 0
-2575 -2591 0
-2576 -2592 0
-2573 -4013 0
-2574 -4014 0
-2575 -4015 0
-2576 -4016 0
-2573 -3761 0
-2574 -3762 0
-2575 -3763 0
-2576 -3764 0
-2573 -3781 0
-2574 -3782 0
-2575 -3783 0
-2576 -3784 0
-2573 -4557 0
-2574 -4558 0
-2575 -4559 0
-2576 -4560 0
-2573 -5585 0
-2574 -5586 0
-2575 -5587 0
-2576 -5588 0
-2573 -3801 0
-2574 -3802 0
-2575 -3803 0
-2576 -3804 0
-2577 -2581 0
-2578 -2582 0
-2579 -2583 0
-2580 -2584 0
-2577 -5593 0
-2578 -5594 0
-2579 -5595 0
-2580 -5596 0
-2577 -2921 0
-2578 -2922 0
-2579 -2923 0
-2580 -2924 0
-2577 -4349 0
-2578 -4350 0
-2579 -4351 0
-2580 -4352 0
-2581 -4101 0
-2582 -4102 0
-2583 -4103 0
-2584 -4104 0
-2581 -2677 0
-2582 -2678 0
-2583 -2679 0
-2584 -2680 0
-2581 -3757 0
-2582 -3758 0
-2583 -3759 0
-2584 -3760 0
-2581 -4793 0
-2582 -4794 0
-2583 -4795 0
-2584 -4796 0
-2581 -5309 0
-2582 -5310 0
-2583 -5311 0
-2584 -5312 0
-2581 -4821 0
-2582 -4822 0
-2583 -4823 0
-2584 -4824 0
-2581 -4357 0
-2582 -4358 0
-2583 -4359 0
-2584 -4360 0
-2581 -4029 0
-2582 -4030 0
-2583 -4031 0
-2584 -4032 0
-2581 -4573 0
-2582 -4574 0
-2583 -4575 0
-2584 -4576 0
-2585 -2961 0
-2586 -2962 0
-2587 -2963 0
-2588 -2964 0
-2585 -5137 0
-2586 -5138 0
-2587 -5139 0
-2588 -5140 0
-2585 -2589 0
-2586 -2590 0
-2587 -2591 0
-2588 -2592 0
-2585 -3757 0
-2586 -3758 0
-2587 -3759 0
-2588 -3760 0
-2585 -2609 0
-2586 -2610 0
-2587 -2611 0
-2588 -2612 0
-2585 -2645 0
-2586 -2646 0
-2587 -2647 0
-2588 -2648 0
-2585 -4053 0
-2586 -4054 0
-2587 -4055 0
-2588 -4056 0
-2585 -4073 0
-2586 -4074 0
-2587 -4075 0
-2588 -4076 0
-2585 -3825 0
-2586 -3826 0
-2587 -3827 0
-2588 -3828 0
-2589 -4137 0
-2590 -4138 0
-2591 -4139 0
-2592 -4140 0
-2589 -4433 0
-2590 -4434 0
-2591 -4435 0
-2592 -4436 0
-2589 -4057 0
-2590 -4058 0
-2591 -4059 0
-2592 -4060 0
-2589 -2685 0
-2590 -2686 0
-2591 -2687 0
-2592 -2688 0
-2593 -3853 0
-2594 -3854 0
-2595 -3855 0
-2596 -3856 0
-2593 -2601 0
-2594 -2602 0
-2595 -2603 0
-2596 -2604 0
-2593 -5161 0
-2594 -5162 0
-2595 -5163 0
-2596 -5164 0
-2593 -4841 0
-2594 -4842 0
-2595 -4843 0
-2596 -4844 0
-2593 -4089 0
-2594 -4090 0
-2595 -4091 0
-2596 -4092 0
-2597 -4613 0
-2598 -4614 0
-2599 -4615 0
-2600 -4616 0
-2597 -5601 0
-2598 -5602 0
-2599 -5603 0
-2600 -5604 0
-2597 -3865 0
-2598 -3866 0
-2599 -3867 0
-2600 -3868 0
-2597 -4269 0
-2598 -4270 0
-2599 -4271 0
-2600 -4272 0
-2597 -3773 0
-2598 -3774 0
-2599 -3775 0
-2600 -3776 0
-2597 -4933 0
-2598 -4934 0
-2599 -4935 0
-2600 -4936 0
-2597 -4449 0
-2598 -4450 0
-2599 -4451 0
-2600 -4452 0
-2597 -4845 0
-2598 -4846 0
-2599 -4847 0
-2600 -4848 0
-2601 -2765 0
-2602 -2766 0
-2603 -2767 0
-2604 -2768 0
-2601 -3917 0
-2602 -3918 0
-2603 -3919 0
-2604 -3920 0
-2601 -5213 0
-2602 -5214 0
-2603 -5215 0
-2604 -5216 0
-2601 -4849 0
-2602 -4850 0
-2603 -4851 0
-2604 -4852 0
-2605 -4105 0
-2606 -4106 0
-2607 -4107 0
-2608 -4108 0
-2605 -2609 0
-2606 -2610 0
-2607 -2611 0
-2608 -2612 0
-2605 -3785 0
-2606 -3786 0
-2607 -3787 0
-2608 -3788 0
-2605 -3809 0
-2606 -3810 0
-2607 -3811 0
-2608 -3812 0
-2609 -4625 0
-2610 -4626 0
-2611 -4627 0
-2612 -4628 0
-2609 -4153 0
-2610 -4154 0
-2611 -4155 0
-2612 -4156 0
-2609 -2649 0
-2610 -2650 0
-2611 -2651 0
-2612 -2652 0
-2609 -3705 0
-2610 -3706 0
-2611 -3707 0
-2612 -3708 0
-2609 -3721 0
-2610 -3722 0
-2611 -3723 0
-2612 -3724 0
-2609 -2725 0
-2610 -2726 0
-2611 -2727 0
-2612 -2728 0
-2609 -5873 0
-2610 -5874 0
-2611 -5875 0
-2612 -5876 0
-2609 -4349 0
-2610 -4350 0
-2611 -4351 0
-2612 -4352 0
-2609 -3853 0
-2610 -3854 0
-2611 -3855 0
-2612 -3856 0
-2609 -3885 0
-2610 -3886 0
-2611 -3887 0
-2612 -3888 0
-2609 -4401 0
-2610 -4402 0
-2611 -4403 0
-2612 -4404 0
-2613 -3717 0
-2614 -3718 0
-2615 -3719 0
-2616 -3720 0
-2613 -4361 0
-2614 -4362 0
-2615 -4363 0
-2616 -4364 0
-2613 -3865 0
-2614 -3866 0
-2615 -3867 0
-2616 -3868 0
-2613 -3889 0
-2614 -3890 0
-2615 -3891 0
-2616 -3892 0
-2613 -5189 0
-2614 -5190 0
-2615 -5191 0
-2616 -5192 0
-2613 -3805 0
-2614 -3806 0
-2615 -3807 0
-2616 -3808 0
-2617 -4517 0
-2618 -4518 0
-2619 -4519 0
-2620 -4520 0
-2617 -5549 0
-2618 -5550 0
-2619 -5551 0
-2620 -5552 0
-2617 -2741 0
-2618 -2742 0
-2619 -2743 0
-2620 -2744 0
-2617 -4161 0
-2618 -4162 0
-2619 -4163 0
-2620 -4164 0
-2617 -2629 0
-2618 -2630 0
-2619 -2631 0
-2620 -2632 0
-2617 -3037 0
-2618 -3038 0
-2619 -3039 0
-2620 -3040 0
-2617 -3821 0
-2618 -3822 0
-2619 -3823 0
-2620 -3824 0
-2617 -3837 0
-2618 -3838 0
-2619 -3839 0
-2620 -3840 0
-2621 -3841 0
-2622 -3842 0
-2623 -3843 0
-2624 -3844 0
-2621 -5637 0
-2622 -5638 0
-2623 -5639 0
-2624 -5640 0
-2621 -4881 0
-2622 -4882 0
-2623 -4883 0
-2624 -4884 0
-2621 -4781 0
-2622 -4782 0
-2623 -4783 0
-2624 -4784 0
-2621 -2745 0
-2622 -2746 0
-2623 -2747 0
-2624 -2748 0
-2621 -2625 0
-2622 -2626 0
-2623 -2627 0
-2624 -2628 0
-2621 -2633 0
-2622 -2634 0
-2623 -2635 0
-2624 -2636 0
-2621 -4173 0
-2622 -4174 0
-2623 -4175 0
-2624 -4176 0
-2621 -2661 0
-2622 -2662 0
-2623 -2663 0
-2624 -2664 0
-2625 -2629 0
-2626 -2630 0
-2627 -2631 0
-2628 -2632 0
-2625 -4165 0
-2626 -4166 0
-2627 -4167 0
-2628 -4168 0
-2625 -2665 0
-2626 -2666 0
-2627 -2667 0
-2628 -2668 0
-2625 -4785 0
-2626 -4786 0
-2627 -4787 0
-2628 -4788 0
-2625 -2749 0
-2626 -2750 0
-2627 -2751 0
-2628 -2752 0
-2625 -3785 0
-2626 -3786 0
-2627 -3787 0
-2628 -3788 0
-2625 -3845 0
-2626 -3846 0
-2627 -3847 0
-2628 -3848 0
-2625 -4885 0
-2626 -4886 0
-2627 -4887 0
-2628 -4888 0
-2625 -5397 0
-2626 -5398 0
-2627 -5399 0
-2628 -5400 0
-2625 -3045 0
-2626 -3046 0
-2627 -3047 0
-2628 -3048 0
-2625 -5613 0
-2626 -5614 0
-2627 -5615 0
-2628 -5616 0
-2629 -4889 0
-2630 -4890 0
-2631 -4891 0
-2632 -4892 0
-2629 -4397 0
-2630 -4398 0
-2631 -4399 0
-2632 -4400 0
-2629 -4525 0
-2630 -4526 0
-2631 -4527 0
-2632 -4528 0
-2629 -4177 0
-2630 -4178 0
-2631 -4179 0
-2632 -4180 0
-2629 -3049 0
-2630 -3050 0
-2631 -3051 0
-2632 -3052 0
-2629 -2669 0
-2630 -2670 0
-2631 -2671 0
-2632 -2672 0
-2629 -3833 0
-2630 -3834 0
-2631 -3835 0
-2632 -3836 0
-2633 -5633 0
-2634 -5634 0
-2635 -5635 0
-2636 -5636 0
-2633 -4625 0
-2634 -4626 0
-2635 -4627 0
-2636 -4628 0
-2633 -4173 0
-2634 -4174 0
-2635 -4175 0
-2636 -4176 0
-2633 -2641 0
-2634 -2642 0
-2635 -2643 0
-2636 -2644 0
-2633 -4185 0
-2634 -4186 0
-2635 -4187 0
-2636 -4188 0
-2633 -2673 0
-2634 -2674 0
-2635 -2675 0
-2636 -2676 0
-2633 -4745 0
-2634 -4746 0
-2635 -4747 0
-2636 -4748 0
-2633 -2753 0
-2634 -2754 0
-2635 -2755 0
-2636 -2756 0
-2633 -4829 0
-2634 -4830 0
-2635 -4831 0
-2636 -4832 0
-2633 -4861 0
-2634 -4862 0
-2635 -4863 0
-2636 -4864 0
-2633 -3853 0
-2634 -3854 0
-2635 -3855 0
-2636 -3856 0
-2633 -4893 0
-2634 -4894 0
-2635 -4895 0
-2636 -4896 0
-2633 -3885 0
-2634 -3886 0
-2635 -3887 0
-2636 -3888 0
-2633 -4401 0
-2634 -4402 0
-2635 -4403 0
-2636 -4404 0
-2637 -4749 0
-2638 -4750 0
-2639 -4751 0
-2640 -4752 0
-2637 -3865 0
-2638 -3866 0
-2639 -3867 0
-2640 -3868 0
-2637 -3889 0
-2638 -3890 0
-2639 -3891 0
-2640 -3892 0
-2637 -4529 0
-2638 -4530 0
-2639 -4531 0
-2640 -4532 0
-2637 -2761 0
-2638 -2762 0
-2639 -2763 0
-2640 -2764 0
-2637 -3789 0
-2638 -3790 0
-2639 -3791 0
-2640 -3792 0
-2641 -5637 0
-2642 -5638 0
-2643 -5639 0
-2644 -5640 0
-2641 -4649 0
-2642 -4650 0
-2643 -4651 0
-2644 -4652 0
-2641 -2645 0
-2642 -2646 0
-2643 -2647 0
-2644 -2648 0
-2641 -5217 0
-2642 -5218 0
-2643 -5219 0
-2644 -5220 0
-2641 -3757 0
-2642 -3758 0
-2643 -3759 0
-2644 -3760 0
-2641 -3805 0
-2642 -3806 0
-2643 -3807 0
-2644 -3808 0
-2641 -4881 0
-2642 -4882 0
-2643 -4883 0
-2644 -4884 0
-2641 -3877 0
-2642 -3878 0
-2643 -3879 0
-2644 -3880 0
-2641 -3901 0
-2642 -3902 0
-2643 -3903 0
-2644 -3904 0
-2641 -3921 0
-2642 -3922 0
-2643 -3923 0
-2644 -3924 0
-2641 -4457 0
-2642 -4458 0
-2643 -4459 0
-2644 -4460 0
-2641 -3949 0
-2642 -3950 0
-2643 -3951 0
-2644 -3952 0
-2645 -4885 0
-2646 -4886 0
-2647 -4887 0
-2648 -4888 0
-2645 -5013 0
-2646 -5014 0
-2647 -5015 0
-2648 -5016 0
-2645 -3761 0
-2646 -3762 0
-2647 -3763 0
-2648 -3764 0
-2645 -5221 0
-2646 -5222 0
-2647 -5223 0
-2648 -5224 0
-2645 -5613 0
-2646 -5614 0
-2647 -5615 0
-2648 -5616 0
-2645 -3953 0
-2646 -3954 0
-2647 -3955 0
-2648 -3956 0
-2649 -4661 0
-2650 -4662 0
-2651 -4663 0
-2652 -4664 0
-2649 -3917 0
-2650 -3918 0
-2651 -3919 0
-2652 -3920 0
-2649 -4429 0
-2650 -4430 0
-2651 -4431 0
-2652 -4432 0
-2649 -5233 0
-2650 -5234 0
-2651 -5235 0
-2652 -5236 0
-2653 -3821 0
-2654 -3822 0
-2655 -3823 0
-2656 -3824 0
-2653 -3865 0
-2654 -3866 0
-2655 -3867 0
-2656 -3868 0
-2653 -4649 0
-2654 -4650 0
-2655 -4651 0
-2656 -4652 0
-2653 -3757 0
-2654 -3758 0
-2655 -3759 0
-2656 -3760 0
-2653 -3769 0
-2654 -3770 0
-2655 -3771 0
-2656 -3772 0
-2653 -3901 0
-2654 -3902 0
-2655 -3903 0
-2656 -3904 0
-2653 -4553 0
-2654 -4554 0
-2655 -4555 0
-2656 -4556 0
-2653 -3941 0
-2654 -3942 0
-2655 -3943 0
-2656 -3944 0
-2653 -4457 0
-2654 -4458 0
-2655 -4459 0
-2656 -4460 0
-2657 -3841 0
-2658 -3842 0
-2659 -3843 0
-2660 -3844 0
-2657 -5657 0
-2658 -5658 0
-2659 -5659 0
-2660 -5660 0
-2657 -5681 0
-2658 -5682 0
-2659 -5683 0
-2660 -5684 0
-2657 -3893 0
-2658 -3894 0
-2659 -3895 0
-2660 -3896 0
-2657 -3129 0
-2658 -3130 0
-2659 -3131 0
-2660 -3132 0
-2657 -4553 0
-2658 -4554 0
-2659 -4555 0
-2660 -4556 0
-2657 -2665 0
-2658 -2666 0
-2659 -2667 0
-2660 -2668 0
-2657 -2681 0
-2658 -2682 0
-2659 -2683 0
-2660 -2684 0
-2661 -5665 0
-2662 -5666 0
-2663 -5667 0
-2664 -5668 0
-2661 -4653 0
-2662 -4654 0
-2663 -4655 0
-2664 -4656 0
-2661 -5685 0
-2662 -5686 0
-2663 -5687 0
-2664 -5688 0
-2661 -2665 0
-2662 -2666 0
-2663 -2667 0
-2664 -2668 0
-2661 -2673 0
-2662 -2674 0
-2663 -2675 0
-2664 -2676 0
-2661 -2677 0
-2662 -2678 0
-2663 -2679 0
-2664 -2680 0
-2661 -4221 0
-2662 -4222 0
-2663 -4223 0
-2664 -4224 0
-2661 -4233 0
-2662 -4234 0
-2663 -4235 0
-2664 -4236 0
-2661 -5257 0
-2662 -5258 0
-2663 -5259 0
-2664 -5260 0
-2661 -2709 0
-2662 -2710 0
-2663 -2711 0
-2664 -2712 0
-2661 -2789 0
-2662 -2790 0
-2663 -2791 0
-2664 -2792 0
-2661 -2821 0
-2662 -2822 0
-2663 -2823 0
-2664 -2824 0
-2661 -3849 0
-2662 -3850 0
-2663 -3851 0
-2664 -3852 0
-2661 -5433 0
-2662 -5434 0
-2663 -5435 0
-2664 -5436 0
-2661 -4929 0
-2662 -4930 0
-2663 -4931 0
-2664 -4932 0
-2661 -3909 0
-2662 -3910 0
-2663 -3911 0
-2664 -3912 0
-2661 -5953 0
-2662 -5954 0
-2663 -5955 0
-2664 -5956 0
-2661 -4461 0
-2662 -4462 0
-2663 -4463 0
-2664 -4464 0
-2661 -3957 0
-2662 -3958 0
-2663 -3959 0
-2664 -3960 0
-2661 -5581 0
-2662 -5582 0
-2663 -5583 0
-2664 -5584 0
-2661 -4561 0
-2662 -4562 0
-2663 -4563 0
-2664 -4564 0
-2661 -4569 0
-2662 -4570 0
-2663 -4571 0
-2664 -4572 0
-2665 -3141 0
-2666 -3142 0
-2667 -3143 0
-2668 -3144 0
-2665 -2669 0
-2666 -2670 0
-2667 -2671 0
-2668 -2672 0
-2665 -2689 0
-2666 -2690 0
-2667 -2691 0
-2668 -2692 0
-2665 -4237 0
-2666 -4238 0
-2667 -4239 0
-2668 -4240 0
-2665 -4281 0
-2666 -4282 0
-2667 -4283 0
-2668 -4284 0
-2665 -4801 0
-2666 -4802 0
-2667 -4803 0
-2668 -4804 0
-2665 -3837 0
-2666 -3838 0
-2667 -3839 0
-2668 -3840 0
-2665 -3853 0
-2666 -3854 0
-2667 -3855 0
-2668 -3856 0
-2665 -3889 0
-2666 -3890 0
-2667 -3891 0
-2668 -3892 0
-2665 -3901 0
-2666 -3902 0
-2667 -3903 0
-2668 -3904 0
-2665 -5437 0
-2666 -5438 0
-2667 -5439 0
-2668 -5440 0
-2665 -4933 0
-2666 -4934 0
-2667 -4935 0
-2668 -4936 0
-2665 -4573 0
-2666 -4574 0
-2667 -4575 0
-2668 -4576 0
-2669 -4225 0
-2670 -4226 0
-2671 -4227 0
-2672 -4228 0
-2669 -2825 0
-2670 -2826 0
-2671 -2827 0
-2672 -2828 0
-2669 -3857 0
-2670 -3858 0
-2671 -3859 0
-2672 -3860 0
-2669 -5553 0
-2670 -5554 0
-2671 -5555 0
-2672 -5556 0
-2669 -4285 0
-2670 -4286 0
-2671 -4287 0
-2672 -4288 0
-2669 -3145 0
-2670 -3146 0
-2671 -3147 0
-2672 -3148 0
-2673 -5645 0
-2674 -5646 0
-2675 -5647 0
-2676 -5648 0
-2673 -4661 0
-2674 -4662 0
-2675 -4663 0
-2676 -4664 0
-2673 -4233 0
-2674 -4234 0
-2675 -4235 0
-2676 -4236 0
-2673 -4241 0
-2674 -4242 0
-2675 -4243 0
-2676 -4244 0
-2673 -4757 0
-2674 -4758 0
-2675 -4759 0
-2676 -4760 0
-2673 -3845 0
-2674 -3846 0
-2675 -3847 0
-2676 -3848 0
-2673 -3917 0
-2674 -3918 0
-2675 -3919 0
-2676 -3920 0
-2673 -3961 0
-2674 -3962 0
-2675 -3963 0
-2676 -3964 0
-2673 -5565 0
-2674 -5566 0
-2675 -5567 0
-2676 -5568 0
-2673 -4565 0
-2674 -4566 0
-2675 -4567 0
-2676 -4568 0
-2673 -6129 0
-2674 -6130 0
-2675 -6131 0
-2676 -6132 0
-2677 -5677 0
-2678 -5678 0
-2679 -5679 0
-2680 -5680 0
-2677 -2693 0
-2678 -2694 0
-2679 -2695 0
-2680 -2696 0
-2677 -4249 0
-2678 -4250 0
-2679 -4251 0
-2680 -4252 0
-2677 -4257 0
-2678 -4258 0
-2679 -4259 0
-2680 -4260 0
-2677 -4821 0
-2678 -4822 0
-2679 -4823 0
-2680 -4824 0
-2677 -2801 0
-2678 -2802 0
-2679 -2803 0
-2680 -2804 0
-2677 -2841 0
-2678 -2842 0
-2679 -2843 0
-2680 -2844 0
-2677 -3885 0
-2678 -3886 0
-2679 -3887 0
-2680 -3888 0
-2677 -5961 0
-2678 -5962 0
-2679 -5963 0
-2680 -5964 0
-2677 -4949 0
-2678 -4950 0
-2679 -4951 0
-2680 -4952 0
-2681 -6021 0
-2682 -6022 0
-2683 -6023 0
-2684 -6024 0
-2681 -2829 0
-2682 -2830 0
-2683 -2831 0
-2684 -2832 0
-2681 -3729 0
-2682 -3730 0
-2683 -3731 0
-2684 -3732 0
-2681 -4233 0
-2682 -4234 0
-2683 -4235 0
-2684 -4236 0
-2681 -4025 0
-2682 -4026 0
-2683 -4027 0
-2684 -4028 0
-2681 -4593 0
-2682 -4594 0
-2683 -4595 0
-2684 -4596 0
-2681 -2805 0
-2682 -2806 0
-2683 -2807 0
-2684 -2808 0
-2685 -3221 0
-2686 -3222 0
-2687 -3223 0
-2688 -3224 0
-2685 -3517 0
-2686 -3518 0
-2687 -3519 0
-2688 -3520 0
-2685 -2889 0
-2686 -2890 0
-2687 -2891 0
-2688 -2892 0
-2685 -4325 0
-2686 -4326 0
-2687 -4327 0
-2688 -4328 0
-2685 -5629 0
-2686 -5630 0
-2687 -5631 0
-2688 -5632 0
-2689 -5085 0
-2690 -5086 0
-2691 -5087 0
-2692 -5088 0
-2689 -5297 0
-2690 -5298 0
-2691 -5299 0
-2692 -5300 0
-2689 -3905 0
-2690 -3906 0
-2691 -3907 0
-2692 -3908 0
-2689 -2761 0
-2690 -2762 0
-2691 -2763 0
-2692 -2764 0
-2689 -3917 0
-2690 -3918 0
-2691 -3919 0
-2692 -3920 0
-2689 -4333 0
-2690 -4334 0
-2691 -4335 0
-2692 -4336 0
-2693 -4993 0
-2694 -4994 0
-2695 -4995 0
-2696 -4996 0
-2693 -4357 0
-2694 -4358 0
-2695 -4359 0
-2696 -4360 0
-2693 -4029 0
-2694 -4030 0
-2695 -4031 0
-2696 -4032 0
-2693 -5309 0
-2694 -5310 0
-2695 -5311 0
-2696 -5312 0
-2693 -5977 0
-2694 -5978 0
-2695 -5979 0
-2696 -5980 0
-2697 -5005 0
-2698 -5006 0
-2699 -5007 0
-2700 -5008 0
-2697 -4289 0
-2698 -4290 0
-2699 -4291 0
-2700 -4292 0
-2697 -2889 0
-2698 -2890 0
-2699 -2891 0
-2700 -2892 0
-2697 -4313 0
-2698 -4314 0
-2699 -4315 0
-2700 -4316 0
-2697 -4705 0
-2698 -4706 0
-2699 -4707 0
-2700 -4708 0
-2697 -3813 0
-2698 -3814 0
-2699 -3815 0
-2700 -3816 0
-2697 -3953 0
-2698 -3954 0
-2699 -3955 0
-2700 -3956 0
-2697 -3961 0
-2698 -3962 0
-2699 -3963 0
-2700 -3964 0
-2701 -5013 0
-2702 -5014 0
-2703 -5015 0
-2704 -5016 0
-2701 -2889 0
-2702 -2890 0
-2703 -2891 0
-2704 -2892 0
-2701 -3961 0
-2702 -3962 0
-2703 -3963 0
-2704 -3964 0
-2701 -4325 0
-2702 -4326 0
-2703 -4327 0
-2704 -4328 0
-2705 -4097 0
-2706 -4098 0
-2707 -4099 0
-2708 -4100 0
-2705 -3849 0
-2706 -3850 0
-2707 -3851 0
-2708 -3852 0
-2705 -2709 0
-2706 -2710 0
-2707 -2711 0
-2708 -2712 0
-2705 -2713 0
-2706 -2714 0
-2707 -2715 0
-2708 -2716 0
-2705 -2725 0
-2706 -2726 0
-2707 -2727 0
-2708 -2728 0
-2705 -3757 0
-2706 -3758 0
-2707 -3759 0
-2708 -3760 0
-2705 -4025 0
-2706 -4026 0
-2707 -4027 0
-2708 -4028 0
-2705 -2917 0
-2706 -2918 0
-2707 -2919 0
-2708 -2920 0
-2705 -4345 0
-2706 -4346 0
-2707 -4347 0
-2708 -4348 0
-2709 -4101 0
-2710 -4102 0
-2711 -4103 0
-2712 -4104 0
-2709 -3761 0
-2710 -3762 0
-2711 -3763 0
-2712 -3764 0
-2709 -5309 0
-2710 -5310 0
-2711 -5311 0
-2712 -5312 0
-2709 -4801 0
-2710 -4802 0
-2711 -4803 0
-2712 -4804 0
-2709 -2757 0
-2710 -2758 0
-2711 -2759 0
-2712 -2760 0
-2709 -4349 0
-2710 -4350 0
-2711 -4351 0
-2712 -4352 0
-2709 -4357 0
-2710 -4358 0
-2711 -4359 0
-2712 -4360 0
-2709 -3853 0
-2710 -3854 0
-2711 -3855 0
-2712 -3856 0
-2709 -5905 0
-2710 -5906 0
-2711 -5907 0
-2712 -5908 0
-2709 -3981 0
-2710 -3982 0
-2711 -3983 0
-2712 -3984 0
-2709 -5009 0
-2710 -5010 0
-2711 -5011 0
-2712 -5012 0
-2709 -4029 0
-2710 -4030 0
-2711 -4031 0
-2712 -4032 0
-2709 -4553 0
-2710 -4554 0
-2711 -4555 0
-2712 -4556 0
-2713 -4365 0
-2714 -4366 0
-2715 -4367 0
-2716 -4368 0
-2713 -3729 0
-2714 -3730 0
-2715 -3731 0
-2716 -3732 0
-2713 -5313 0
-2714 -5314 0
-2715 -5315 0
-2716 -5316 0
-2713 -4037 0
-2714 -4038 0
-2715 -4039 0
-2716 -4040 0
-2713 -4561 0
-2714 -4562 0
-2715 -4563 0
-2716 -4564 0
-2713 -2929 0
-2714 -2930 0
-2715 -2931 0
-2716 -2932 0
-2717 -4361 0
-2718 -4362 0
-2719 -4363 0
-2720 -4364 0
-2717 -3725 0
-2718 -3726 0
-2719 -3727 0
-2720 -3728 0
-2717 -3865 0
-2718 -3866 0
-2719 -3867 0
-2720 -3868 0
-2717 -3993 0
-2718 -3994 0
-2719 -3995 0
-2720 -3996 0
-2717 -5017 0
-2718 -5018 0
-2719 -5019 0
-2720 -5020 0
-2717 -5561 0
-2718 -5562 0
-2719 -5563 0
-2720 -5564 0
-2717 -3805 0
-2718 -3806 0
-2719 -3807 0
-2720 -3808 0
-2717 -5321 0
-2718 -5322 0
-2719 -5323 0
-2720 -5324 0
-2721 -3989 0
-2722 -3990 0
-2723 -3991 0
-2724 -3992 0
-2721 -4373 0
-2722 -4374 0
-2723 -4375 0
-2724 -4376 0
-2721 -2729 0
-2722 -2730 0
-2723 -2731 0
-2724 -2732 0
-2721 -2997 0
-2722 -2998 0
-2723 -2999 0
-2724 -3000 0
-2721 -4029 0
-2722 -4030 0
-2723 -4031 0
-2724 -4032 0
-2721 -5333 0
-2722 -5334 0
-2723 -5335 0
-2724 -5336 0
-2721 -4065 0
-2722 -4066 0
-2723 -4067 0
-2724 -4068 0
-2721 -3961 0
-2722 -3962 0
-2723 -3963 0
-2724 -3964 0
-2725 -4381 0
-2726 -4382 0
-2727 -4383 0
-2728 -4384 0
-2725 -5021 0
-2726 -5022 0
-2727 -5023 0
-2728 -5024 0
-2725 -4033 0
-2726 -4034 0
-2727 -4035 0
-2728 -4036 0
-2725 -4821 0
-2726 -4822 0
-2727 -4823 0
-2728 -4824 0
-2725 -4577 0
-2726 -4578 0
-2727 -4579 0
-2728 -4580 0
-2729 -3741 0
-2730 -3742 0
-2731 -3743 0
-2732 -3744 0
-2729 -4385 0
-2730 -4386 0
-2731 -4387 0
-2732 -4388 0
-2729 -4041 0
-2730 -4042 0
-2731 -4043 0
-2732 -4044 0
-2729 -3965 0
-2730 -3966 0
-2731 -3967 0
-2732 -3968 0
-2733 -2841 0
-2734 -2842 0
-2735 -2843 0
-2736 -2844 0
-2733 -4389 0
-2734 -4390 0
-2735 -4391 0
-2736 -4392 0
-2733 -2737 0
-2734 -2738 0
-2735 -2739 0
-2736 -2740 0
-2733 -4317 0
-2734 -4318 0
-2735 -4319 0
-2736 -4320 0
-2733 -3817 0
-2734 -3818 0
-2735 -3819 0
-2736 -3820 0
-2733 -3961 0
-2734 -3962 0
-2735 -3963 0
-2736 -3964 0
-2737 -2945 0
-2738 -2946 0
-2739 -2947 0
-2740 -2948 0
-2737 -3997 0
-2738 -3998 0
-2739 -3999 0
-2740 -4000 0
-2737 -4393 0
-2738 -4394 0
-2739 -4395 0
-2740 -4396 0
-2737 -4141 0
-2738 -4142 0
-2739 -4143 0
-2740 -4144 0
-2737 -5593 0
-2738 -5594 0
-2739 -5595 0
-2740 -5596 0
-2737 -3965 0
-2738 -3966 0
-2739 -3967 0
-2740 -3968 0
-2741 -4109 0
-2742 -4110 0
-2743 -4111 0
-2744 -4112 0
-2741 -4121 0
-2742 -4122 0
-2743 -4123 0
-2744 -4124 0
-2741 -4633 0
-2742 -4634 0
-2743 -4635 0
-2744 -4636 0
-2741 -4765 0
-2742 -4766 0
-2743 -4767 0
-2744 -4768 0
-2741 -3801 0
-2742 -3802 0
-2743 -3803 0
-2744 -3804 0
-2741 -2793 0
-2742 -2794 0
-2743 -2795 0
-2744 -2796 0
-2741 -3305 0
-2742 -3306 0
-2743 -3307 0
-2744 -3308 0
-2741 -2837 0
-2742 -2838 0
-2743 -2839 0
-2744 -2840 0
-2741 -4413 0
-2742 -4414 0
-2743 -4415 0
-2744 -4416 0
-2741 -4497 0
-2742 -4498 0
-2743 -4499 0
-2744 -4500 0
-2741 -2997 0
-2742 -2998 0
-2743 -2999 0
-2744 -3000 0
-2741 -3001 0
-2742 -3002 0
-2743 -3003 0
-2744 -3004 0
-2741 -5613 0
-2742 -5614 0
-2743 -5615 0
-2744 -5616 0
-2741 -3573 0
-2742 -3574 0
-2743 -3575 0
-2744 -3576 0
-2745 -4881 0
-2746 -4882 0
-2747 -4883 0
-2748 -4884 0
-2745 -2841 0
-2746 -2842 0
-2747 -2843 0
-2748 -2844 0
-2745 -3753 0
-2746 -3754 0
-2747 -3755 0
-2748 -3756 0
-2745 -5049 0
-2746 -5050 0
-2747 -5051 0
-2748 -5052 0
-2745 -2749 0
-2746 -2750 0
-2747 -2751 0
-2748 -2752 0
-2745 -3905 0
-2746 -3906 0
-2747 -3907 0
-2748 -3908 0
-2745 -5717 0
-2746 -5718 0
-2747 -5719 0
-2748 -5720 0
-2745 -6105 0
-2746 -6106 0
-2747 -6107 0
-2748 -6108 0
-2745 -5621 0
-2746 -5622 0
-2747 -5623 0
-2748 -5624 0
-2749 -5133 0
-2750 -5134 0
-2751 -5135 0
-2752 -5136 0
-2749 -5721 0
-2750 -5722 0
-2751 -5723 0
-2752 -5724 0
-2749 -2757 0
-2750 -2758 0
-2751 -2759 0
-2752 -2760 0
-2749 -5353 0
-2750 -5354 0
-2751 -5355 0
-2752 -5356 0
-2749 -4885 0
-2750 -4886 0
-2751 -4887 0
-2752 -4888 0
-2749 -2845 0
-2750 -2846 0
-2751 -2847 0
-2752 -2848 0
-2749 -3893 0
-2750 -3894 0
-2751 -3895 0
-2752 -3896 0
-2749 -4409 0
-2750 -4410 0
-2751 -4411 0
-2752 -4412 0
-2749 -5949 0
-2750 -5950 0
-2751 -5951 0
-2752 -5952 0
-2749 -3969 0
-2750 -3970 0
-2751 -3971 0
-2752 -3972 0
-2749 -4025 0
-2750 -4026 0
-2751 -4027 0
-2752 -4028 0
-2749 -5053 0
-2750 -5054 0
-2751 -5055 0
-2752 -5056 0
-2749 -5589 0
-2750 -5590 0
-2751 -5591 0
-2752 -5592 0
-2749 -4073 0
-2750 -4074 0
-2751 -4075 0
-2752 -4076 0
-2749 -4593 0
-2750 -4594 0
-2751 -4595 0
-2752 -4596 0
-2753 -5149 0
-2754 -5150 0
-2755 -5151 0
-2756 -5152 0
-2753 -5729 0
-2754 -5730 0
-2755 -5731 0
-2756 -5732 0
-2753 -5753 0
-2754 -5754 0
-2755 -5755 0
-2756 -5756 0
-2753 -3721 0
-2754 -3722 0
-2755 -3723 0
-2756 -3724 0
-2753 -2757 0
-2754 -2758 0
-2755 -2759 0
-2756 -2760 0
-2753 -5357 0
-2754 -5358 0
-2755 -5359 0
-2756 -5360 0
-2753 -3837 0
-2754 -3838 0
-2755 -3839 0
-2756 -3840 0
-2753 -3909 0
-2754 -3910 0
-2755 -3911 0
-2756 -3912 0
-2753 -4421 0
-2754 -4422 0
-2755 -4423 0
-2756 -4424 0
-2753 -4429 0
-2754 -4430 0
-2755 -4431 0
-2756 -4432 0
-2753 -5961 0
-2754 -5962 0
-2755 -5963 0
-2756 -5964 0
-2753 -5513 0
-2754 -5514 0
-2755 -5515 0
-2756 -5516 0
-2753 -2965 0
-2754 -2966 0
-2755 -2967 0
-2756 -2968 0
-2753 -4033 0
-2754 -4034 0
-2755 -4035 0
-2756 -4036 0
-2753 -4049 0
-2754 -4050 0
-2755 -4051 0
-2756 -4052 0
-2753 -4085 0
-2754 -4086 0
-2755 -4087 0
-2756 -4088 0
-2753 -5625 0
-2754 -5626 0
-2755 -5627 0
-2756 -5628 0
-2757 -5157 0
-2758 -5158 0
-2759 -5159 0
-2760 -5160 0
-2757 -4601 0
-2758 -4602 0
-2759 -4603 0
-2760 -4604 0
-2757 -3725 0
-2758 -3726 0
-2759 -3727 0
-2760 -3728 0
-2757 -2761 0
-2758 -2762 0
-2759 -2763 0
-2760 -2764 0
-2757 -5361 0
-2758 -5362 0
-2759 -5363 0
-2760 -5364 0
-2757 -4905 0
-2758 -4906 0
-2759 -4907 0
-2760 -4908 0
-2757 -3917 0
-2758 -3918 0
-2759 -3919 0
-2760 -3920 0
-2757 -4429 0
-2758 -4430 0
-2759 -4431 0
-2760 -4432 0
-2757 -4441 0
-2758 -4442 0
-2759 -4443 0
-2760 -4444 0
-2757 -5517 0
-2758 -5518 0
-2759 -5519 0
-2760 -5520 0
-2757 -2973 0
-2758 -2974 0
-2759 -2975 0
-2760 -2976 0
-2757 -3997 0
-2758 -3998 0
-2759 -3999 0
-2760 -4000 0
-2757 -5045 0
-2758 -5046 0
-2759 -5047 0
-2760 -5048 0
-2757 -4077 0
-2758 -4078 0
-2759 -4079 0
-2760 -4080 0
-2761 -3721 0
-2762 -3722 0
-2763 -3723 0
-2764 -3724 0
-2761 -3921 0
-2762 -3922 0
-2763 -3923 0
-2764 -3924 0
-2761 -4433 0
-2762 -4434 0
-2763 -4435 0
-2764 -4436 0
-2761 -5965 0
-2762 -5966 0
-2763 -5967 0
-2764 -5968 0
-2761 -4445 0
-2762 -4446 0
-2763 -4447 0
-2764 -4448 0
-2761 -5521 0
-2762 -5522 0
-2763 -5523 0
-2764 -5524 0
-2761 -5569 0
-2762 -5570 0
-2763 -5571 0
-2764 -5572 0
-2761 -4045 0
-2762 -4046 0
-2763 -4047 0
-2764 -4048 0
-2761 -4057 0
-2762 -4058 0
-2763 -4059 0
-2764 -4060 0
-2761 -5601 0
-2762 -5602 0
-2763 -5603 0
-2764 -5604 0
-2765 -3853 0
-2766 -3854 0
-2767 -3855 0
-2768 -3856 0
-2765 -4909 0
-2766 -4910 0
-2767 -4911 0
-2768 -4912 0
-2765 -5161 0
-2766 -5162 0
-2767 -5163 0
-2768 -5164 0
-2765 -5957 0
-2766 -5958 0
-2767 -5959 0
-2768 -5960 0
-2765 -4089 0
-2766 -4090 0
-2767 -4091 0
-2768 -4092 0
-2765 -4837 0
-2766 -4838 0
-2767 -4839 0
-2768 -4840 0
-2765 -4845 0
-2766 -4846 0
-2767 -4847 0
-2768 -4848 0
-2769 -5645 0
-2770 -5646 0
-2771 -5647 0
-2772 -5648 0
-2769 -3769 0
-2770 -3770 0
-2771 -3771 0
-2772 -3772 0
-2769 -2885 0
-2770 -2886 0
-2771 -2887 0
-2772 -2888 0
-2769 -2777 0
-2770 -2778 0
-2771 -2779 0
-2772 -2780 0
-2769 -4461 0
-2770 -4462 0
-2771 -4463 0
-2772 -4464 0
-2773 -3333 0
-2774 -3334 0
-2775 -3335 0
-2776 -3336 0
-2773 -4009 0
-2774 -4010 0
-2775 -4011 0
-2776 -4012 0
-2773 -2989 0
-2774 -2990 0
-2775 -2991 0
-2776 -2992 0
-2773 -4141 0
-2774 -4142 0
-2775 -4143 0
-2776 -4144 0
-2773 -3905 0
-2774 -3906 0
-2775 -3907 0
-2776 -3908 0
-2773 -3017 0
-2774 -3018 0
-2775 -3019 0
-2776 -3020 0
-2773 -2893 0
-2774 -2894 0
-2775 -2895 0
-2776 -2896 0
-2773 -4065 0
-2774 -4066 0
-2775 -4067 0
-2776 -4068 0
-2777 -5649 0
-2778 -5650 0
-2779 -5651 0
-2780 -5652 0
-2777 -4653 0
-2778 -4654 0
-2779 -4655 0
-2780 -4656 0
-2777 -5749 0
-2778 -5750 0
-2779 -5751 0
-2780 -5752 0
-2777 -4769 0
-2778 -4770 0
-2779 -4771 0
-2780 -4772 0
-2777 -3785 0
-2778 -3786 0
-2779 -3787 0
-2780 -3788 0
-2777 -2781 0
-2778 -2782 0
-2779 -2783 0
-2780 -2784 0
-2777 -2805 0
-2778 -2806 0
-2779 -2807 0
-2780 -2808 0
-2777 -2833 0
-2778 -2834 0
-2779 -2835 0
-2780 -2836 0
-2777 -3877 0
-2778 -3878 0
-2779 -3879 0
-2780 -3880 0
-2777 -3909 0
-2778 -3910 0
-2779 -3911 0
-2780 -3912 0
-2777 -4421 0
-2778 -4422 0
-2779 -4423 0
-2780 -4424 0
-2777 -4461 0
-2778 -4462 0
-2779 -4463 0
-2780 -4464 0
-2777 -5509 0
-2778 -5510 0
-2779 -5511 0
-2780 -5512 0
-2777 -5533 0
-2778 -5534 0
-2779 -5535 0
-2780 -5536 0
-2777 -4001 0
-2778 -4002 0
-2779 -4003 0
-2780 -4004 0
-2777 -4029 0
-2778 -4030 0
-2779 -4031 0
-2780 -4032 0
-2777 -5073 0
-2778 -5074 0
-2779 -5075 0
-2780 -5076 0
-2781 -4661 0
-2782 -4662 0
-2783 -4663 0
-2784 -4664 0
-2781 -4157 0
-2782 -4158 0
-2783 -4159 0
-2784 -4160 0
-2781 -2785 0
-2782 -2786 0
-2783 -2787 0
-2784 -2788 0
-2781 -2841 0
-2782 -2842 0
-2783 -2843 0
-2784 -2844 0
-2781 -3917 0
-2782 -3918 0
-2783 -3919 0
-2784 -3920 0
-2781 -4429 0
-2782 -4430 0
-2783 -4431 0
-2784 -4432 0
-2781 -2905 0
-2782 -2906 0
-2783 -2907 0
-2784 -2908 0
-2781 -4473 0
-2782 -4474 0
-2783 -4475 0
-2784 -4476 0
-2781 -4009 0
-2782 -4010 0
-2783 -4011 0
-2784 -4012 0
-2781 -4041 0
-2782 -4042 0
-2783 -4043 0
-2784 -4044 0
-2781 -5077 0
-2782 -5078 0
-2783 -5079 0
-2784 -5080 0
-2781 -4077 0
-2782 -4078 0
-2783 -4079 0
-2784 -4080 0
-2785 -4665 0
-2786 -4666 0
-2787 -4667 0
-2788 -4668 0
-2785 -3793 0
-2786 -3794 0
-2787 -3795 0
-2788 -3796 0
-2785 -2845 0
-2786 -2846 0
-2787 -2847 0
-2788 -2848 0
-2785 -3881 0
-2786 -3882 0
-2787 -3883 0
-2788 -3884 0
-2785 -3921 0
-2786 -3922 0
-2787 -3923 0
-2788 -3924 0
-2785 -4433 0
-2786 -4434 0
-2787 -4435 0
-2788 -4436 0
-2785 -3941 0
-2786 -3942 0
-2787 -3943 0
-2788 -3944 0
-2785 -4469 0
-2786 -4470 0
-2787 -4471 0
-2788 -4472 0
-2785 -5517 0
-2786 -5518 0
-2787 -5519 0
-2788 -5520 0
-2785 -5537 0
-2786 -5538 0
-2787 -5539 0
-2788 -5540 0
-2789 -4073 0
-2790 -4074 0
-2791 -4075 0
-2792 -4076 0
-2789 -3597 0
-2790 -3598 0
-2791 -3599 0
-2792 -3600 0
-2789 -4665 0
-2790 -4666 0
-2791 -4667 0
-2792 -4668 0
-2789 -4069 0
-2790 -4070 0
-2791 -4071 0
-2792 -4072 0
-2793 -5101 0
-2794 -5102 0
-2795 -5103 0
-2796 -5104 0
-2793 -4673 0
-2794 -4674 0
-2795 -4675 0
-2796 -4676 0
-2793 -4729 0
-2794 -4730 0
-2795 -4731 0
-2796 -4732 0
-2793 -3369 0
-2794 -3370 0
-2795 -3371 0
-2796 -3372 0
-2793 -4925 0
-2794 -4926 0
-2795 -4927 0
-2796 -4928 0
-2793 -2929 0
-2794 -2930 0
-2795 -2931 0
-2796 -2932 0
-2793 -4517 0
-2794 -4518 0
-2795 -4519 0
-2796 -4520 0
-2793 -4025 0
-2794 -4026 0
-2795 -4027 0
-2796 -4028 0
-2793 -5081 0
-2794 -5082 0
-2795 -5083 0
-2796 -5084 0
-2793 -3037 0
-2794 -3038 0
-2795 -3039 0
-2796 -3040 0
-2793 -4077 0
-2794 -4078 0
-2795 -4079 0
-2796 -4080 0
-2793 -4085 0
-2794 -4086 0
-2795 -4087 0
-2796 -4088 0
-2797 -4041 0
-2798 -4042 0
-2799 -4043 0
-2800 -4044 0
-2797 -4181 0
-2798 -4182 0
-2799 -4183 0
-2800 -4184 0
-2797 -3053 0
-2798 -3054 0
-2799 -3055 0
-2800 -3056 0
-2801 -5761 0
-2802 -5762 0
-2803 -5763 0
-2804 -5764 0
-2801 -5785 0
-2802 -5786 0
-2803 -5787 0
-2804 -5788 0
-2801 -5673 0
-2802 -5674 0
-2803 -5675 0
-2804 -5676 0
-2801 -4049 0
-2802 -4050 0
-2803 -4051 0
-2804 -4052 0
-2801 -4949 0
-2802 -4950 0
-2803 -4951 0
-2804 -4952 0
-2801 -5117 0
-2802 -5118 0
-2803 -5119 0
-2804 -5120 0
-2805 -4213 0
-2806 -4214 0
-2807 -4215 0
-2808 -4216 0
-2805 -4773 0
-2806 -4774 0
-2807 -4775 0
-2808 -4776 0
-2805 -4789 0
-2806 -4790 0
-2807 -4791 0
-2808 -4792 0
-2805 -3853 0
-2806 -3854 0
-2807 -3855 0
-2808 -3856 0
-2805 -5413 0
-2806 -5414 0
-2807 -5415 0
-2808 -5416 0
-2805 -3933 0
-2806 -3934 0
-2807 -3935 0
-2808 -3936 0
-2805 -2921 0
-2806 -2922 0
-2807 -2923 0
-2808 -2924 0
-2805 -4485 0
-2806 -4486 0
-2807 -4487 0
-2808 -4488 0
-2805 -4493 0
-2806 -4494 0
-2807 -4495 0
-2808 -4496 0
-2805 -5525 0
-2806 -5526 0
-2807 -5527 0
-2808 -5528 0
-2805 -5541 0
-2806 -5542 0
-2807 -5543 0
-2808 -5544 0
-2805 -4541 0
-2806 -4542 0
-2807 -4543 0
-2808 -4544 0
-2805 -4093 0
-2806 -4094 0
-2807 -4095 0
-2808 -4096 0
-2809 -4233 0
-2810 -4234 0
-2811 -4235 0
-2812 -4236 0
-2809 -5121 0
-2810 -5122 0
-2811 -5123 0
-2812 -5124 0
-2809 -4769 0
-2810 -4770 0
-2811 -4771 0
-2812 -4772 0
-2809 -5797 0
-2810 -5798 0
-2811 -5799 0
-2812 -5800 0
-2809 -5433 0
-2810 -5434 0
-2811 -5435 0
-2812 -5436 0
-2809 -5693 0
-2810 -5694 0
-2811 -5695 0
-2812 -5696 0
-2809 -4561 0
-2810 -4562 0
-2811 -4563 0
-2812 -4564 0
-2809 -4981 0
-2810 -4982 0
-2811 -4983 0
-2812 -4984 0
-2813 -3729 0
-2814 -3730 0
-2815 -3731 0
-2816 -3732 0
-2813 -2845 0
-2814 -2846 0
-2815 -2847 0
-2816 -2848 0
-2813 -3005 0
-2814 -3006 0
-2815 -3007 0
-2816 -3008 0
-2813 -3793 0
-2814 -3794 0
-2815 -3795 0
-2816 -3796 0
-2817 -4097 0
-2818 -4098 0
-2819 -4099 0
-2820 -4100 0
-2817 -2825 0
-2818 -2826 0
-2819 -2827 0
-2820 -2828 0
-2817 -5129 0
-2818 -5130 0
-2819 -5131 0
-2820 -5132 0
-2817 -2837 0
-2818 -2838 0
-2819 -2839 0
-2820 -2840 0
-2817 -3737 0
-2818 -3738 0
-2819 -3739 0
-2820 -3740 0
-2817 -4509 0
-2818 -4510 0
-2819 -4511 0
-2820 -4512 0
-2817 -4517 0
-2818 -4518 0
-2819 -4519 0
-2820 -4520 0
-2817 -3825 0
-2818 -3826 0
-2819 -3827 0
-2820 -3828 0
-2817 -3037 0
-2818 -3038 0
-2819 -3039 0
-2820 -3040 0
-2817 -2889 0
-2818 -2890 0
-2819 -2891 0
-2820 -2892 0
-2817 -3957 0
-2818 -3958 0
-2819 -3959 0
-2820 -3960 0
-2821 -4865 0
-2822 -4866 0
-2823 -4867 0
-2824 -4868 0
-2821 -2841 0
-2822 -2842 0
-2823 -2843 0
-2824 -2844 0
-2821 -4173 0
-2822 -4174 0
-2823 -4175 0
-2824 -4176 0
-2821 -5081 0
-2822 -5082 0
-2823 -5083 0
-2824 -5084 0
-2821 -5617 0
-2822 -5618 0
-2823 -5619 0
-2824 -5620 0
-2825 -3049 0
-2826 -3050 0
-2827 -3051 0
-2828 -3052 0
-2825 -5521 0
-2826 -5522 0
-2827 -5523 0
-2828 -5524 0
-2825 -4133 0
-2826 -4134 0
-2827 -4135 0
-2828 -4136 0
-2825 -4517 0
-2826 -4518 0
-2827 -4519 0
-2828 -4520 0
-2825 -4525 0
-2826 -4526 0
-2827 -4527 0
-2828 -4528 0
-2825 -4157 0
-2826 -4158 0
-2827 -4159 0
-2828 -4160 0
-2825 -2897 0
-2826 -2898 0
-2827 -2899 0
-2828 -2900 0
-2825 -4177 0
-2826 -4178 0
-2827 -4179 0
-2828 -4180 0
-2825 -4701 0
-2826 -4702 0
-2827 -4703 0
-2828 -4704 0
-2825 -3961 0
-2826 -3962 0
-2827 -3963 0
-2828 -3964 0
-2829 -3745 0
-2830 -3746 0
-2831 -3747 0
-2832 -3748 0
-2829 -5029 0
-2830 -5030 0
-2831 -5031 0
-2832 -5032 0
-2829 -3065 0
-2830 -3066 0
-2831 -3067 0
-2832 -3068 0
-2829 -3037 0
-2830 -3038 0
-2831 -3039 0
-2832 -3040 0
-2829 -3297 0
-2830 -3298 0
-2831 -3299 0
-2832 -3300 0
-2829 -3053 0
-2830 -3054 0
-2831 -3055 0
-2832 -3056 0
-2833 -4873 0
-2834 -4874 0
-2835 -4875 0
-2836 -4876 0
-2833 -3853 0
-2834 -3854 0
-2835 -3855 0
-2836 -3856 0
-2833 -2841 0
-2834 -2842 0
-2835 -2843 0
-2836 -2844 0
-2833 -4129 0
-2834 -4130 0
-2835 -4131 0
-2836 -4132 0
-2833 -4789 0
-2834 -4790 0
-2835 -4791 0
-2836 -4792 0
-2833 -2921 0
-2834 -2922 0
-2835 -2923 0
-2836 -2924 0
-2837 -2929 0
-2838 -2930 0
-2839 -2931 0
-2840 -2932 0
-2837 -3057 0
-2838 -3058 0
-2839 -3059 0
-2840 -3060 0
-2837 -4629 0
-2838 -4630 0
-2839 -4631 0
-2840 -4632 0
-2837 -2849 0
-2838 -2850 0
-2839 -2851 0
-2840 -2852 0
-2837 -4137 0
-2838 -4138 0
-2839 -4139 0
-2840 -4140 0
-2837 -4529 0
-2838 -4530 0
-2839 -4531 0
-2840 -4532 0
-2837 -2877 0
-2838 -2878 0
-2839 -2879 0
-2840 -2880 0
-2837 -4193 0
-2838 -4194 0
-2839 -4195 0
-2840 -4196 0
-2837 -5625 0
-2838 -5626 0
-2839 -5627 0
-2840 -5628 0
-2841 -4105 0
-2842 -4106 0
-2843 -4107 0
-2844 -4108 0
-2841 -4117 0
-2842 -4118 0
-2843 -4119 0
-2844 -4120 0
-2841 -3825 0
-2842 -3826 0
-2843 -3827 0
-2844 -3828 0
-2841 -3861 0
-2842 -3862 0
-2843 -3863 0
-2844 -3864 0
-2841 -4885 0
-2842 -4886 0
-2843 -4887 0
-2844 -4888 0
-2841 -2845 0
-2842 -2846 0
-2843 -2847 0
-2844 -2848 0
-2841 -5949 0
-2842 -5950 0
-2843 -5951 0
-2844 -5952 0
-2841 -5981 0
-2842 -5982 0
-2843 -5983 0
-2844 -5984 0
-2841 -5589 0
-2842 -5590 0
-2843 -5591 0
-2844 -5592 0
-2841 -6101 0
-2842 -6102 0
-2843 -6103 0
-2844 -6104 0
-2841 -5617 0
-2842 -5618 0
-2843 -5619 0
-2844 -5620 0
-2845 -4633 0
-2846 -4634 0
-2847 -4635 0
-2848 -4636 0
-2845 -4153 0
-2846 -4154 0
-2847 -4155 0
-2848 -4156 0
-2845 -4185 0
-2846 -4186 0
-2847 -4187 0
-2848 -4188 0
-2845 -4205 0
-2846 -4206 0
-2847 -4207 0
-2848 -4208 0
-2845 -3749 0
-2846 -3750 0
-2847 -3751 0
-2848 -3752 0
-2845 -3777 0
-2846 -3778 0
-2847 -3779 0
-2848 -3780 0
-2845 -3829 0
-2846 -3830 0
-2847 -3831 0
-2848 -3832 0
-2845 -3865 0
-2846 -3866 0
-2847 -3867 0
-2848 -3868 0
-2845 -4889 0
-2846 -4890 0
-2847 -4891 0
-2848 -4892 0
-2845 -5405 0
-2846 -5406 0
-2847 -5407 0
-2848 -5408 0
-2845 -5985 0
-2846 -5986 0
-2847 -5987 0
-2848 -5988 0
-2845 -5593 0
-2846 -5594 0
-2847 -5595 0
-2848 -5596 0
-2845 -6105 0
-2846 -6106 0
-2847 -6107 0
-2848 -6108 0
-2845 -5621 0
-2846 -5622 0
-2847 -5623 0
-2848 -5624 0
-2845 -3065 0
-2846 -3066 0
-2847 -3067 0
-2848 -3068 0
-2849 -5633 0
-2850 -5634 0
-2851 -5635 0
-2852 -5636 0
-2849 -3077 0
-2850 -3078 0
-2851 -3079 0
-2852 -3080 0
-2849 -5637 0
-2850 -5638 0
-2851 -5639 0
-2852 -5640 0
-2849 -5645 0
-2850 -5646 0
-2851 -5647 0
-2852 -5648 0
-2849 -3093 0
-2850 -3094 0
-2851 -3095 0
-2852 -3096 0
-2849 -4513 0
-2850 -4514 0
-2851 -4515 0
-2852 -4516 0
-2849 -6105 0
-2850 -6106 0
-2851 -6107 0
-2852 -6108 0
-2853 -3969 0
-2854 -3970 0
-2855 -3971 0
-2856 -3972 0
-2853 -5645 0
-2854 -5646 0
-2855 -5647 0
-2856 -5648 0
-2853 -5137 0
-2854 -5138 0
-2855 -5139 0
-2856 -5140 0
-2853 -3093 0
-2854 -3094 0
-2855 -3095 0
-2856 -3096 0
-2853 -2857 0
-2854 -2858 0
-2855 -2859 0
-2856 -2860 0
-2853 -3005 0
-2854 -3006 0
-2855 -3007 0
-2856 -3008 0
-2853 -4165 0
-2854 -4166 0
-2855 -4167 0
-2856 -4168 0
-2853 -2889 0
-2854 -2890 0
-2855 -2891 0
-2856 -2892 0
-2853 -5705 0
-2854 -5706 0
-2855 -5707 0
-2856 -5708 0
-2853 -6005 0
-2854 -6006 0
-2855 -6007 0
-2856 -6008 0
-2857 -3097 0
-2858 -3098 0
-2859 -3099 0
-2860 -3100 0
-2857 -4157 0
-2858 -4158 0
-2859 -4159 0
-2860 -4160 0
-2857 -4801 0
-2858 -4802 0
-2859 -4803 0
-2860 -4804 0
-2857 -2893 0
-2858 -2894 0
-2859 -2895 0
-2860 -2896 0
-2857 -6009 0
-2858 -6010 0
-2859 -6011 0
-2860 -6012 0
-2861 -2945 0
-2862 -2946 0
-2863 -2947 0
-2864 -2948 0
-2861 -5413 0
-2862 -5414 0
-2863 -5415 0
-2864 -5416 0
-2861 -3117 0
-2862 -3118 0
-2863 -3119 0
-2864 -3120 0
-2861 -4537 0
-2862 -4538 0
-2863 -4539 0
-2864 -4540 0
-2861 -4541 0
-2862 -4542 0
-2863 -4543 0
-2864 -4544 0
-2861 -4809 0
-2862 -4810 0
-2863 -4811 0
-2864 -4812 0
-2861 -4173 0
-2862 -4174 0
-2863 -4175 0
-2864 -4176 0
-2861 -3825 0
-2862 -3826 0
-2863 -3827 0
-2864 -3828 0
-2861 -4213 0
-2862 -4214 0
-2863 -4215 0
-2864 -4216 0
-2865 -3081 0
-2866 -3082 0
-2867 -3083 0
-2868 -3084 0
-2865 -5141 0
-2866 -5142 0
-2867 -5143 0
-2868 -5144 0
-2865 -3097 0
-2866 -3098 0
-2867 -3099 0
-2868 -3100 0
-2865 -5661 0
-2866 -5662 0
-2867 -5663 0
-2868 -5664 0
-2865 -3129 0
-2866 -3130 0
-2867 -3131 0
-2868 -3132 0
-2865 -4781 0
-2866 -4782 0
-2867 -4783 0
-2868 -4784 0
-2865 -3817 0
-2866 -3818 0
-2867 -3819 0
-2868 -3820 0
-2865 -3833 0
-2866 -3834 0
-2867 -3835 0
-2868 -3836 0
-2865 -5933 0
-2866 -5934 0
-2867 -5935 0
-2868 -5936 0
-2865 -2873 0
-2866 -2874 0
-2867 -2875 0
-2868 -2876 0
-2865 -2901 0
-2866 -2902 0
-2867 -2903 0
-2868 -2904 0
-2865 -4001 0
-2866 -4002 0
-2867 -4003 0
-2868 -4004 0
-2865 -5061 0
-2866 -5062 0
-2867 -5063 0
-2868 -5064 0
-2865 -6109 0
-2866 -6110 0
-2867 -6111 0
-2868 -6112 0
-2869 -3977 0
-2870 -3978 0
-2871 -3979 0
-2872 -3980 0
-2869 -4133 0
-2870 -4134 0
-2871 -4135 0
-2872 -4136 0
-2869 -4777 0
-2870 -4778 0
-2871 -4779 0
-2872 -4780 0
-2869 -4529 0
-2870 -4530 0
-2871 -4531 0
-2872 -4532 0
-2869 -3137 0
-2870 -3138 0
-2871 -3139 0
-2872 -3140 0
-2869 -4301 0
-2870 -4302 0
-2871 -4303 0
-2872 -4304 0
-2869 -3825 0
-2870 -3826 0
-2871 -3827 0
-2872 -3828 0
-2873 -3981 0
-2874 -3982 0
-2875 -3983 0
-2876 -3984 0
-2873 -3093 0
-2874 -3094 0
-2875 -3095 0
-2876 -3096 0
-2873 -4009 0
-2874 -4010 0
-2875 -4011 0
-2876 -4012 0
-2873 -5669 0
-2874 -5670 0
-2875 -5671 0
-2876 -5672 0
-2873 -2877 0
-2874 -2878 0
-2875 -2879 0
-2876 -2880 0
-2873 -3141 0
-2874 -3142 0
-2875 -3143 0
-2876 -3144 0
-2873 -3789 0
-2874 -3790 0
-2875 -3791 0
-2876 -3792 0
-2873 -4305 0
-2874 -4306 0
-2875 -4307 0
-2876 -4308 0
-2873 -3161 0
-2874 -3162 0
-2875 -3163 0
-2876 -3164 0
-2873 -3941 0
-2874 -3942 0
-2875 -3943 0
-2876 -3944 0
-2877 -3985 0
-2878 -3986 0
-2879 -3987 0
-2880 -3988 0
-2877 -3097 0
-2878 -3098 0
-2879 -3099 0
-2880 -3100 0
-2877 -4545 0
-2878 -4546 0
-2879 -4547 0
-2880 -4548 0
-2877 -3145 0
-2878 -3146 0
-2879 -3147 0
-2880 -3148 0
-2877 -2913 0
-2878 -2914 0
-2879 -2915 0
-2880 -2916 0
-2877 -3833 0
-2878 -3834 0
-2879 -3835 0
-2880 -3836 0
-2881 -3713 0
-2882 -3714 0
-2883 -3715 0
-2884 -3716 0
-2881 -4001 0
-2882 -4002 0
-2883 -4003 0
-2884 -4004 0
-2881 -5157 0
-2882 -5158 0
-2883 -5159 0
-2884 -5160 0
-2881 -3117 0
-2882 -3118 0
-2883 -3119 0
-2884 -3120 0
-2881 -5421 0
-2882 -5422 0
-2883 -5423 0
-2884 -5424 0
-2881 -6069 0
-2882 -6070 0
-2883 -6071 0
-2884 -6072 0
-2881 -4157 0
-2882 -4158 0
-2883 -4159 0
-2884 -4160 0
-2881 -4549 0
-2882 -4550 0
-2883 -4551 0
-2884 -4552 0
-2881 -2889 0
-2882 -2890 0
-2883 -2891 0
-2884 -2892 0
-2881 -4173 0
-2882 -4174 0
-2883 -4175 0
-2884 -4176 0
-2881 -2917 0
-2882 -2918 0
-2883 -2919 0
-2884 -2920 0
-2881 -5493 0
-2882 -5494 0
-2883 -5495 0
-2884 -5496 0
-2881 -4217 0
-2882 -4218 0
-2883 -4219 0
-2884 -4220 0
-2885 -5641 0
-2886 -5642 0
-2887 -5643 0
-2888 -5644 0
-2885 -5661 0
-2886 -5662 0
-2887 -5663 0
-2888 -5664 0
-2885 -4645 0
-2886 -4646 0
-2887 -4647 0
-2888 -4648 0
-2885 -5165 0
-2886 -5166 0
-2887 -5167 0
-2888 -5168 0
-2885 -3129 0
-2886 -3130 0
-2887 -3131 0
-2888 -3132 0
-2885 -4209 0
-2886 -4210 0
-2887 -4211 0
-2888 -4212 0
-2885 -4781 0
-2886 -4782 0
-2887 -4783 0
-2888 -4784 0
-2885 -4817 0
-2886 -4818 0
-2887 -4819 0
-2888 -4820 0
-2885 -2889 0
-2886 -2890 0
-2887 -2891 0
-2888 -2892 0
-2885 -3937 0
-2886 -3938 0
-2887 -3939 0
-2888 -3940 0
-2885 -2925 0
-2886 -2926 0
-2887 -2927 0
-2888 -2928 0
-2885 -5529 0
-2886 -5530 0
-2887 -5531 0
-2888 -5532 0
-2885 -4005 0
-2886 -4006 0
-2887 -4007 0
-2888 -4008 0
-2885 -4553 0
-2886 -4554 0
-2887 -4555 0
-2888 -4556 0
-2889 -5133 0
-2890 -5134 0
-2891 -5135 0
-2892 -5136 0
-2889 -5645 0
-2890 -5646 0
-2891 -5647 0
-2892 -5648 0
-2889 -5665 0
-2890 -5666 0
-2891 -5667 0
-2892 -5668 0
-2889 -4141 0
-2890 -4142 0
-2891 -4143 0
-2892 -4144 0
-2889 -5169 0
-2890 -5170 0
-2891 -5171 0
-2892 -5172 0
-2889 -4149 0
-2890 -4150 0
-2891 -4151 0
-2892 -4152 0
-2889 -3133 0
-2890 -3134 0
-2891 -3135 0
-2892 -3136 0
-2889 -3157 0
-2890 -3158 0
-2891 -3159 0
-2892 -3160 0
-2889 -4185 0
-2890 -4186 0
-2891 -4187 0
-2892 -4188 0
-2889 -4189 0
-2890 -4190 0
-2891 -4191 0
-2892 -4192 0
-2889 -4213 0
-2890 -4214 0
-2891 -4215 0
-2892 -4216 0
-2889 -4225 0
-2890 -4226 0
-2891 -4227 0
-2892 -4228 0
-2889 -5253 0
-2890 -5254 0
-2891 -5255 0
-2892 -5256 0
-2889 -3737 0
-2890 -3738 0
-2891 -3739 0
-2892 -3740 0
-2889 -3741 0
-2890 -3742 0
-2891 -3743 0
-2892 -3744 0
-2889 -3753 0
-2890 -3754 0
-2891 -3755 0
-2892 -3756 0
-2889 -3765 0
-2890 -3766 0
-2891 -3767 0
-2892 -3768 0
-2889 -4277 0
-2890 -4278 0
-2891 -4279 0
-2892 -4280 0
-2889 -4781 0
-2890 -4782 0
-2891 -4783 0
-2892 -4784 0
-2889 -4785 0
-2890 -4786 0
-2891 -4787 0
-2892 -4788 0
-2889 -4821 0
-2890 -4822 0
-2891 -4823 0
-2892 -4824 0
-2889 -3837 0
-2890 -3838 0
-2891 -3839 0
-2892 -3840 0
-2889 -3897 0
-2890 -3898 0
-2891 -3899 0
-2892 -3900 0
-2889 -5429 0
-2890 -5430 0
-2891 -5431 0
-2892 -5432 0
-2889 -2893 0
-2890 -2894 0
-2891 -2895 0
-2892 -2896 0
-2889 -2897 0
-2890 -2898 0
-2891 -2899 0
-2892 -2900 0
-2889 -5473 0
-2890 -5474 0
-2891 -5475 0
-2892 -5476 0
-2889 -2929 0
-2890 -2930 0
-2891 -2931 0
-2892 -2932 0
-2889 -5497 0
-2890 -5498 0
-2891 -5499 0
-2892 -5500 0
-2889 -2953 0
-2890 -2954 0
-2891 -2955 0
-2892 -2956 0
-2889 -3473 0
-2890 -3474 0
-2891 -3475 0
-2892 -3476 0
-2889 -5013 0
-2890 -5014 0
-2891 -5015 0
-2892 -5016 0
-2889 -4009 0
-2890 -4010 0
-2891 -4011 0
-2892 -4012 0
-2889 -4549 0
-2890 -4550 0
-2891 -4551 0
-2892 -4552 0
-2889 -4557 0
-2890 -4558 0
-2891 -4559 0
-2892 -4560 0
-2893 -3713 0
-2894 -3714 0
-2895 -3715 0
-2896 -3716 0
-2893 -4785 0
-2894 -4786 0
-2895 -4787 0
-2896 -4788 0
-2893 -3137 0
-2894 -3138 0
-2895 -3139 0
-2896 -3140 0
-2893 -5173 0
-2894 -5174 0
-2895 -5175 0
-2896 -5176 0
-2893 -4193 0
-2894 -4194 0
-2895 -4195 0
-2896 -4196 0
-2893 -4709 0
-2894 -4710 0
-2895 -4711 0
-2896 -4712 0
-2897 -5137 0
-2898 -5138 0
-2899 -5139 0
-2900 -5140 0
-2897 -5649 0
-2898 -5650 0
-2899 -5651 0
-2900 -5652 0
-2897 -5177 0
-2898 -5178 0
-2899 -5179 0
-2900 -5180 0
-2897 -3145 0
-2898 -3146 0
-2899 -3147 0
-2900 -3148 0
-2897 -3721 0
-2898 -3722 0
-2899 -3723 0
-2900 -3724 0
-2897 -3761 0
-2898 -3762 0
-2899 -3763 0
-2900 -3764 0
-2897 -4285 0
-2898 -4286 0
-2899 -4287 0
-2900 -4288 0
-2897 -2933 0
-2898 -2934 0
-2899 -2935 0
-2900 -2936 0
-2897 -6013 0
-2898 -6014 0
-2899 -6015 0
-2900 -6016 0
-2897 -2957 0
-2898 -2958 0
-2899 -2959 0
-2900 -2960 0
-2897 -4013 0
-2898 -4014 0
-2899 -4015 0
-2900 -4016 0
-2897 -2997 0
-2898 -2998 0
-2899 -2999 0
-2900 -3000 0
-2897 -4557 0
-2898 -4558 0
-2899 -4559 0
-2900 -4560 0
-2901 -3117 0
-2902 -3118 0
-2903 -3119 0
-2904 -3120 0
-2901 -4141 0
-2902 -4142 0
-2903 -4143 0
-2904 -4144 0
-2901 -3137 0
-2902 -3138 0
-2903 -3139 0
-2904 -3140 0
-2901 -3165 0
-2902 -3166 0
-2903 -3167 0
-2904 -3168 0
-2901 -4241 0
-2902 -4242 0
-2903 -4243 0
-2904 -4244 0
-2901 -3853 0
-2902 -3854 0
-2903 -3855 0
-2904 -3856 0
-2901 -3865 0
-2902 -3866 0
-2903 -3867 0
-2904 -3868 0
-2901 -2905 0
-2902 -2906 0
-2903 -2907 0
-2904 -2908 0
-2901 -3961 0
-2902 -3962 0
-2903 -3963 0
-2904 -3964 0
-2901 -2961 0
-2902 -2962 0
-2903 -2963 0
-2904 -2964 0
-2901 -5069 0
-2902 -5070 0
-2903 -5071 0
-2904 -5072 0
-2901 -4561 0
-2902 -4562 0
-2903 -4563 0
-2904 -4564 0
-2901 -4565 0
-2902 -4566 0
-2903 -4567 0
-2904 -4568 0
-2905 -5653 0
-2906 -5654 0
-2907 -5655 0
-2908 -5656 0
-2905 -3121 0
-2906 -3122 0
-2907 -3123 0
-2908 -3124 0
-2905 -3169 0
-2906 -3170 0
-2907 -3171 0
-2908 -3172 0
-2905 -3185 0
-2906 -3186 0
-2907 -3187 0
-2908 -3188 0
-2905 -4745 0
-2906 -4746 0
-2907 -4747 0
-2908 -4748 0
-2905 -4749 0
-2906 -4750 0
-2907 -4751 0
-2908 -4752 0
-2905 -4245 0
-2906 -4246 0
-2907 -4247 0
-2908 -4248 0
-2905 -3857 0
-2906 -3858 0
-2907 -3859 0
-2908 -3860 0
-2905 -3349 0
-2906 -3350 0
-2907 -3351 0
-2908 -3352 0
-2905 -3869 0
-2906 -3870 0
-2907 -3871 0
-2908 -3872 0
-2905 -5441 0
-2906 -5442 0
-2907 -5443 0
-2908 -5444 0
-2905 -2913 0
-2906 -2914 0
-2907 -2915 0
-2908 -2916 0
-2905 -4021 0
-2906 -4022 0
-2907 -4023 0
-2908 -4024 0
-2909 -3353 0
-2910 -3354 0
-2911 -3355 0
-2912 -3356 0
-2909 -3889 0
-2910 -3890 0
-2911 -3891 0
-2912 -3892 0
-2909 -3129 0
-2910 -3130 0
-2911 -3131 0
-2912 -3132 0
-2909 -4025 0
-2910 -4026 0
-2911 -4027 0
-2912 -4028 0
-2909 -3145 0
-2910 -3146 0
-2911 -3147 0
-2912 -3148 0
-2909 -4041 0
-2910 -4042 0
-2911 -4043 0
-2912 -4044 0
-2913 -3181 0
-2914 -3182 0
-2915 -3183 0
-2916 -3184 0
-2913 -3865 0
-2914 -3866 0
-2915 -3867 0
-2916 -3868 0
-2913 -5145 0
-2914 -5146 0
-2915 -5147 0
-2916 -5148 0
-2913 -4145 0
-2914 -4146 0
-2915 -4147 0
-2916 -4148 0
-2913 -3137 0
-2914 -3138 0
-2915 -3139 0
-2916 -3140 0
-2913 -4201 0
-2914 -4202 0
-2915 -4203 0
-2916 -4204 0
-2917 -2949 0
-2918 -2950 0
-2919 -2951 0
-2920 -2952 0
-2917 -2929 0
-2918 -2930 0
-2919 -2931 0
-2920 -2932 0
-2917 -5149 0
-2918 -5150 0
-2919 -5151 0
-2920 -5152 0
-2917 -5821 0
-2918 -5822 0
-2919 -5823 0
-2920 -5824 0
-2917 -5449 0
-2918 -5450 0
-2919 -5451 0
-2920 -5452 0
-2917 -3161 0
-2918 -3162 0
-2919 -3163 0
-2920 -3164 0
-2917 -4573 0
-2918 -4574 0
-2919 -4575 0
-2920 -4576 0
-2917 -4833 0
-2918 -4834 0
-2919 -4835 0
-2920 -4836 0
-2921 -4657 0
-2922 -4658 0
-2923 -4659 0
-2924 -4660 0
-2921 -3157 0
-2922 -3158 0
-2923 -3159 0
-2924 -3160 0
-2921 -4229 0
-2922 -4230 0
-2923 -4231 0
-2924 -4232 0
-2921 -4249 0
-2922 -4250 0
-2923 -4251 0
-2924 -4252 0
-2921 -3817 0
-2922 -3818 0
-2923 -3819 0
-2924 -3820 0
-2921 -4921 0
-2922 -4922 0
-2923 -4923 0
-2924 -4924 0
-2921 -3917 0
-2922 -3918 0
-2923 -3919 0
-2924 -3920 0
-2921 -5453 0
-2922 -5454 0
-2923 -5455 0
-2924 -5456 0
-2921 -2925 0
-2922 -2926 0
-2923 -2927 0
-2924 -2928 0
-2921 -3969 0
-2922 -3970 0
-2923 -3971 0
-2924 -3972 0
-2921 -5509 0
-2922 -5510 0
-2923 -5511 0
-2924 -5512 0
-2921 -2965 0
-2922 -2966 0
-2923 -2967 0
-2924 -2968 0
-2921 -5533 0
-2922 -5534 0
-2923 -5535 0
-2924 -5536 0
-2921 -5025 0
-2922 -5026 0
-2923 -5027 0
-2924 -5028 0
-2921 -4577 0
-2922 -4578 0
-2923 -4579 0
-2924 -4580 0
-2925 -5661 0
-2926 -5662 0
-2927 -5663 0
-2928 -5664 0
-2925 -5153 0
-2926 -5154 0
-2927 -5155 0
-2928 -5156 0
-2925 -4661 0
-2926 -4662 0
-2927 -4663 0
-2928 -4664 0
-2925 -5185 0
-2926 -5186 0
-2927 -5187 0
-2928 -5188 0
-2925 -3165 0
-2926 -3166 0
-2927 -3167 0
-2928 -3168 0
-2925 -4233 0
-2926 -4234 0
-2927 -4235 0
-2928 -4236 0
-2925 -4289 0
-2926 -4290 0
-2927 -4291 0
-2928 -4292 0
-2925 -3821 0
-2926 -3822 0
-2927 -3823 0
-2928 -3824 0
-2925 -4925 0
-2926 -4926 0
-2927 -4927 0
-2928 -4928 0
-2925 -3921 0
-2926 -3922 0
-2927 -3923 0
-2928 -3924 0
-2925 -2929 0
-2926 -2930 0
-2927 -2931 0
-2928 -2932 0
-2925 -5513 0
-2926 -5514 0
-2927 -5515 0
-2928 -5516 0
-2925 -3489 0
-2926 -3490 0
-2927 -3491 0
-2928 -3492 0
-2925 -6065 0
-2926 -6066 0
-2927 -6067 0
-2928 -6068 0
-2925 -4025 0
-2926 -4026 0
-2927 -4027 0
-2928 -4028 0
-2929 -5665 0
-2930 -5666 0
-2931 -5667 0
-2932 -5668 0
-2929 -5157 0
-2930 -5158 0
-2931 -5159 0
-2932 -5160 0
-2929 -4153 0
-2930 -4154 0
-2931 -4155 0
-2932 -4156 0
-2929 -4157 0
-2930 -4158 0
-2931 -4159 0
-2932 -4160 0
-2929 -4665 0
-2930 -4666 0
-2931 -4667 0
-2932 -4668 0
-2929 -5189 0
-2930 -5190 0
-2931 -5191 0
-2932 -5192 0
-2929 -3169 0
-2930 -3170 0
-2931 -3171 0
-2932 -3172 0
-2929 -3185 0
-2930 -3186 0
-2931 -3187 0
-2932 -3188 0
-2929 -4237 0
-2930 -4238 0
-2931 -4239 0
-2932 -4240 0
-2929 -3825 0
-2930 -3826 0
-2931 -3827 0
-2932 -3828 0
-2929 -2933 0
-2930 -2934 0
-2931 -2935 0
-2932 -2936 0
-2929 -3941 0
-2930 -3942 0
-2931 -3943 0
-2932 -3944 0
-2929 -6069 0
-2930 -6070 0
-2931 -6071 0
-2932 -6072 0
-2929 -4029 0
-2930 -4030 0
-2931 -4031 0
-2932 -4032 0
-2929 -3009 0
-2930 -3010 0
-2931 -3011 0
-2932 -3012 0
-2929 -6077 0
-2930 -6078 0
-2931 -6079 0
-2932 -6080 0
-2933 -3973 0
-2934 -3974 0
-2935 -3975 0
-2936 -3976 0
-2933 -5521 0
-2934 -5522 0
-2935 -5523 0
-2936 -5524 0
-2933 -4245 0
-2934 -4246 0
-2935 -4247 0
-2936 -4248 0
-2933 -5169 0
-2934 -5170 0
-2935 -5171 0
-2936 -5172 0
-2933 -4149 0
-2934 -4150 0
-2935 -4151 0
-2936 -4152 0
-2933 -4677 0
-2934 -4678 0
-2935 -4679 0
-2936 -4680 0
-2933 -4041 0
-2934 -4042 0
-2935 -4043 0
-2936 -4044 0
-2933 -4297 0
-2934 -4298 0
-2935 -4299 0
-2936 -4300 0
-2933 -4201 0
-2934 -4202 0
-2935 -4203 0
-2936 -4204 0
-2933 -3181 0
-2934 -3182 0
-2935 -3183 0
-2936 -3184 0
-2937 -4289 0
-2938 -4290 0
-2939 -4291 0
-2940 -4292 0
-2941 -2945 0
-2942 -2946 0
-2943 -2947 0
-2944 -2948 0
-2941 -3205 0
-2942 -3206 0
-2943 -3207 0
-2944 -3208 0
-2941 -4229 0
-2942 -4230 0
-2943 -4231 0
-2944 -4232 0
-2941 -3749 0
-2942 -3750 0
-2943 -3751 0
-2944 -3752 0
-2941 -5037 0
-2942 -5038 0
-2943 -5039 0
-2944 -5040 0
-2941 -5281 0
-2942 -5282 0
-2943 -5283 0
-2944 -5284 0
-2941 -4793 0
-2942 -4794 0
-2943 -4795 0
-2944 -4796 0
-2941 -5817 0
-2942 -5818 0
-2943 -5819 0
-2944 -5820 0
-2941 -3045 0
-2942 -3046 0
-2943 -3047 0
-2944 -3048 0
-2941 -5109 0
-2942 -5110 0
-2943 -5111 0
-2944 -5112 0
-2941 -3837 0
-2942 -3838 0
-2943 -3839 0
-2944 -3840 0
-2945 -5677 0
-2946 -5678 0
-2947 -5679 0
-2948 -5680 0
-2945 -4165 0
-2946 -4166 0
-2947 -4167 0
-2948 -4168 0
-2945 -5193 0
-2946 -5194 0
-2947 -5195 0
-2948 -5196 0
-2945 -3209 0
-2946 -3210 0
-2947 -3211 0
-2948 -3212 0
-2945 -4233 0
-2946 -4234 0
-2947 -4235 0
-2948 -4236 0
-2945 -5821 0
-2946 -5822 0
-2947 -5823 0
-2948 -5824 0
-2945 -4313 0
-2946 -4314 0
-2947 -4315 0
-2948 -4316 0
-2945 -4845 0
-2946 -4846 0
-2947 -4847 0
-2948 -4848 0
-2945 -3897 0
-2946 -3898 0
-2947 -3899 0
-2948 -3900 0
-2945 -3941 0
-2946 -3942 0
-2947 -3943 0
-2948 -3944 0
-2945 -2949 0
-2946 -2950 0
-2947 -2951 0
-2948 -2952 0
-2945 -4025 0
-2946 -4026 0
-2947 -4027 0
-2948 -4028 0
-2945 -3049 0
-2946 -3050 0
-2947 -3051 0
-2948 -3052 0
-2945 -4593 0
-2946 -4594 0
-2947 -4595 0
-2948 -4596 0
-2945 -5113 0
-2946 -5114 0
-2947 -5115 0
-2948 -5116 0
-2949 -4241 0
-2950 -4242 0
-2951 -4243 0
-2952 -4244 0
-2949 -3221 0
-2950 -3222 0
-2951 -3223 0
-2952 -3224 0
-2949 -4377 0
-2950 -4378 0
-2951 -4379 0
-2952 -4380 0
-2949 -3749 0
-2950 -3750 0
-2951 -3751 0
-2952 -3752 0
-2949 -5685 0
-2950 -5686 0
-2951 -5687 0
-2952 -5688 0
-2949 -4801 0
-2950 -4802 0
-2951 -4803 0
-2952 -4804 0
-2949 -4037 0
-2950 -4038 0
-2951 -4039 0
-2952 -4040 0
-2949 -4721 0
-2950 -4722 0
-2951 -4723 0
-2952 -4724 0
-2953 -5221 0
-2954 -5222 0
-2955 -5223 0
-2956 -5224 0
-2953 -4241 0
-2954 -4242 0
-2955 -4243 0
-2956 -4244 0
-2953 -3221 0
-2954 -3222 0
-2955 -3223 0
-2956 -3224 0
-2953 -3753 0
-2954 -3754 0
-2955 -3755 0
-2956 -3756 0
-2953 -4801 0
-2954 -4802 0
-2955 -4803 0
-2956 -4804 0
-2953 -4305 0
-2954 -4306 0
-2955 -4307 0
-2956 -4308 0
-2953 -4325 0
-2954 -4326 0
-2955 -4327 0
-2956 -4328 0
-2953 -3905 0
-2954 -3906 0
-2955 -3907 0
-2956 -3908 0
-2953 -6025 0
-2954 -6026 0
-2955 -6027 0
-2956 -6028 0
-2953 -2957 0
-2954 -2958 0
-2955 -2959 0
-2956 -2960 0
-2953 -3005 0
-2954 -3006 0
-2955 -3007 0
-2956 -3008 0
-2953 -3517 0
-2954 -3518 0
-2955 -3519 0
-2956 -3520 0
-2953 -4053 0
-2954 -4054 0
-2955 -4055 0
-2956 -4056 0
-2953 -4073 0
-2954 -4074 0
-2955 -4075 0
-2956 -4076 0
-2953 -3061 0
-2954 -3062 0
-2955 -3063 0
-2956 -3064 0
-2957 -3233 0
-2958 -3234 0
-2959 -3235 0
-2960 -3236 0
-2957 -3761 0
-2958 -3762 0
-2959 -3763 0
-2960 -3764 0
-2957 -5813 0
-2958 -5814 0
-2959 -5815 0
-2960 -5816 0
-2957 -4337 0
-2958 -4338 0
-2959 -4339 0
-2960 -4340 0
-2957 -5197 0
-2958 -5198 0
-2959 -5199 0
-2960 -5200 0
-2957 -4057 0
-2958 -4058 0
-2959 -4059 0
-2960 -4060 0
-2957 -4193 0
-2958 -4194 0
-2959 -4195 0
-2960 -4196 0
-2961 -5697 0
-2962 -5698 0
-2963 -5699 0
-2964 -5700 0
-2961 -3209 0
-2962 -3210 0
-2963 -3211 0
-2964 -3212 0
-2961 -3225 0
-2962 -3226 0
-2963 -3227 0
-2964 -3228 0
-2961 -3241 0
-2962 -3242 0
-2963 -3243 0
-2964 -3244 0
-2961 -4269 0
-2962 -4270 0
-2963 -4271 0
-2964 -4272 0
-2961 -5301 0
-2962 -5302 0
-2963 -5303 0
-2964 -5304 0
-2961 -5817 0
-2962 -5818 0
-2963 -5819 0
-2964 -5820 0
-2961 -4813 0
-2962 -4814 0
-2963 -4815 0
-2964 -4816 0
-2961 -4821 0
-2962 -4822 0
-2963 -4823 0
-2964 -4824 0
-2961 -5945 0
-2962 -5946 0
-2963 -5947 0
-2964 -5948 0
-2961 -3917 0
-2962 -3918 0
-2963 -3919 0
-2964 -3920 0
-2961 -3929 0
-2962 -3930 0
-2963 -3931 0
-2964 -3932 0
-2961 -3425 0
-2962 -3426 0
-2963 -3427 0
-2964 -3428 0
-2961 -4013 0
-2962 -4014 0
-2963 -4015 0
-2964 -4016 0
-2961 -6121 0
-2962 -6122 0
-2963 -6123 0
-2964 -6124 0
-2961 -4085 0
-2962 -4086 0
-2963 -4087 0
-2964 -4088 0
-2961 -4605 0
-2962 -4606 0
-2963 -4607 0
-2964 -4608 0
-2965 -4609 0
-2966 -4610 0
-2967 -4611 0
-2968 -4612 0
-2965 -5205 0
-2966 -5206 0
-2967 -5207 0
-2968 -5208 0
-2965 -4817 0
-2966 -4818 0
-2967 -4819 0
-2968 -4820 0
-2965 -4829 0
-2966 -4830 0
-2967 -4831 0
-2968 -4832 0
-2965 -4349 0
-2966 -4350 0
-2967 -4351 0
-2968 -4352 0
-2965 -3893 0
-2966 -3894 0
-2967 -3895 0
-2968 -3896 0
-2965 -3945 0
-2966 -3946 0
-2967 -3947 0
-2968 -3948 0
-2965 -5525 0
-2966 -5526 0
-2967 -5527 0
-2968 -5528 0
-2965 -5541 0
-2966 -5542 0
-2967 -5543 0
-2968 -5544 0
-2965 -2993 0
-2966 -2994 0
-2967 -2995 0
-2968 -2996 0
-2969 -3237 0
-2970 -3238 0
-2971 -3239 0
-2972 -3240 0
-2969 -4025 0
-2970 -4026 0
-2971 -4027 0
-2972 -4028 0
-2969 -5209 0
-2970 -5210 0
-2971 -5211 0
-2972 -5212 0
-2969 -3933 0
-2970 -3934 0
-2971 -3935 0
-2972 -3936 0
-2969 -4981 0
-2970 -4982 0
-2971 -4983 0
-2972 -4984 0
-2973 -4233 0
-2974 -4234 0
-2975 -4235 0
-2976 -4236 0
-2973 -4373 0
-2974 -4374 0
-2975 -4375 0
-2976 -4376 0
-2973 -5857 0
-2974 -5858 0
-2975 -5859 0
-2976 -5860 0
-2973 -2977 0
-2974 -2978 0
-2975 -2979 0
-2976 -2980 0
-2973 -4261 0
-2974 -4262 0
-2975 -4263 0
-2976 -4264 0
-2973 -4833 0
-2974 -4834 0
-2975 -4835 0
-2976 -4836 0
-2977 -4241 0
-2978 -4242 0
-2979 -4243 0
-2980 -4244 0
-2977 -5697 0
-2978 -5698 0
-2979 -5699 0
-2980 -5700 0
-2977 -3921 0
-2978 -3922 0
-2979 -3923 0
-2980 -3924 0
-2977 -5333 0
-2978 -5334 0
-2979 -5335 0
-2980 -5336 0
-2977 -5841 0
-2978 -5842 0
-2979 -5843 0
-2980 -5844 0
-2977 -5233 0
-2978 -5234 0
-2979 -5235 0
-2980 -5236 0
-2981 -4233 0
-2982 -4234 0
-2983 -4235 0
-2984 -4236 0
-2981 -4389 0
-2982 -4390 0
-2983 -4391 0
-2984 -4392 0
-2981 -2985 0
-2982 -2986 0
-2983 -2987 0
-2984 -2988 0
-2981 -4033 0
-2982 -4034 0
-2983 -4035 0
-2984 -4036 0
-2981 -5077 0
-2982 -5078 0
-2983 -5079 0
-2984 -5080 0
-2985 -4241 0
-2986 -4242 0
-2987 -4243 0
-2988 -4244 0
-2985 -3105 0
-2986 -3106 0
-2987 -3107 0
-2988 -3108 0
-2985 -4425 0
-2986 -4426 0
-2987 -4427 0
-2988 -4428 0
-2985 -5233 0
-2986 -5234 0
-2987 -5235 0
-2988 -5236 0
-2985 -3941 0
-2986 -3942 0
-2987 -3943 0
-2988 -3944 0
-2985 -4209 0
-2986 -4210 0
-2987 -4211 0
-2988 -4212 0
-2985 -4597 0
-2986 -4598 0
-2987 -4599 0
-2988 -4600 0
-2989 -4233 0
-2990 -4234 0
-2991 -4235 0
-2992 -4236 0
-2989 -4729 0
-2990 -4730 0
-2991 -4731 0
-2992 -4732 0
-2989 -4397 0
-2990 -4398 0
-2991 -4399 0
-2992 -4400 0
-2989 -3137 0
-2990 -3138 0
-2991 -3139 0
-2992 -3140 0
-2989 -4057 0
-2990 -4058 0
-2991 -4059 0
-2992 -4060 0
-2989 -5993 0
-2990 -5994 0
-2991 -5995 0
-2992 -5996 0
-2989 -4085 0
-2990 -4086 0
-2991 -4087 0
-2992 -4088 0
-2989 -4217 0
-2990 -4218 0
-2991 -4219 0
-2992 -4220 0
-2989 -5241 0
-2990 -5242 0
-2991 -5243 0
-2992 -5244 0
-2993 -5785 0
-2994 -5786 0
-2995 -5787 0
-2996 -5788 0
-2993 -3773 0
-2994 -3774 0
-2995 -3775 0
-2996 -3776 0
-2993 -4429 0
-2994 -4430 0
-2995 -4431 0
-2996 -4432 0
-2993 -5845 0
-2994 -5846 0
-2995 -5847 0
-2996 -5848 0
-2993 -5357 0
-2994 -5358 0
-2995 -5359 0
-2996 -5360 0
-2993 -4085 0
-2994 -4086 0
-2995 -4087 0
-2996 -4088 0
-2993 -5245 0
-2994 -5246 0
-2995 -5247 0
-2996 -5248 0
-2997 -4873 0
-2998 -4874 0
-2999 -4875 0
-3000 -4876 0
-2997 -5181 0
-2998 -5182 0
-2999 -5183 0
-3000 -5184 0
-2997 -4301 0
-2998 -4302 0
-2999 -4303 0
-3000 -4304 0
-3001 -4105 0
-3002 -4106 0
-3003 -4107 0
-3004 -4108 0
-3001 -4273 0
-3002 -4274 0
-3003 -4275 0
-3004 -4276 0
-3001 -3785 0
-3002 -3786 0
-3003 -3787 0
-3004 -3788 0
-3001 -3037 0
-3002 -3038 0
-3003 -3039 0
-3004 -3040 0
-3001 -3809 0
-3002 -3810 0
-3003 -3811 0
-3004 -3812 0
-3001 -4321 0
-3002 -4322 0
-3003 -4323 0
-3004 -4324 0
-3001 -3961 0
-3002 -3962 0
-3003 -3963 0
-3004 -3964 0
-3005 -3853 0
-3006 -3854 0
-3007 -3855 0
-3008 -3856 0
-3005 -4373 0
-3006 -4374 0
-3007 -4375 0
-3008 -4376 0
-3005 -4401 0
-3006 -4402 0
-3007 -4403 0
-3008 -4404 0
-3005 -4305 0
-3006 -4306 0
-3007 -4307 0
-3008 -4308 0
-3005 -6001 0
-3006 -6002 0
-3007 -6003 0
-3008 -6004 0
-3005 -4349 0
-3006 -4350 0
-3007 -4351 0
-3008 -4352 0
-3005 -3065 0
-3006 -3066 0
-3007 -3067 0
-3008 -3068 0
-3009 -4361 0
-3010 -4362 0
-3011 -4363 0
-3012 -4364 0
-3009 -3725 0
-3010 -3726 0
-3011 -3727 0
-3012 -3728 0
-3009 -3865 0
-3010 -3866 0
-3011 -3867 0
-3012 -3868 0
-3009 -3953 0
-3010 -3954 0
-3011 -3955 0
-3012 -3956 0
-3009 -4925 0
-3010 -4926 0
-3011 -4927 0
-3012 -4928 0
-3009 -3805 0
-3010 -3806 0
-3011 -3807 0
-3012 -3808 0
-3013 -4881 0
-3014 -4882 0
-3015 -4883 0
-3016 -4884 0
-3013 -3093 0
-3014 -3094 0
-3015 -3095 0
-3016 -3096 0
-3013 -4389 0
-3014 -4390 0
-3015 -4391 0
-3016 -4392 0
-3013 -3037 0
-3014 -3038 0
-3015 -3039 0
-3016 -3040 0
-3013 -3777 0
-3014 -3778 0
-3015 -3779 0
-3016 -3780 0
-3013 -4289 0
-3014 -4290 0
-3015 -4291 0
-3016 -4292 0
-3013 -3017 0
-3014 -3018 0
-3015 -3019 0
-3016 -3020 0
-3013 -3021 0
-3014 -3022 0
-3015 -3023 0
-3016 -3024 0
-3013 -5713 0
-3014 -5714 0
-3015 -5715 0
-3016 -5716 0
-3013 -4317 0
-3014 -4318 0
-3015 -4319 0
-3016 -4320 0
-3013 -3817 0
-3014 -3818 0
-3015 -3819 0
-3016 -3820 0
-3017 -4113 0
-3018 -4114 0
-3019 -4115 0
-3020 -4116 0
-3017 -3097 0
-3018 -3098 0
-3019 -3099 0
-3020 -3100 0
-3017 -3737 0
-3018 -3738 0
-3019 -3739 0
-3020 -3740 0
-3017 -3781 0
-3018 -3782 0
-3019 -3783 0
-3020 -3784 0
-3017 -3297 0
-3018 -3298 0
-3019 -3299 0
-3020 -3300 0
-3017 -4321 0
-3018 -4322 0
-3019 -4323 0
-3020 -4324 0
-3017 -5865 0
-3018 -5866 0
-3019 -5867 0
-3020 -5868 0
-3017 -3821 0
-3018 -3822 0
-3019 -3823 0
-3020 -3824 0
-3017 -4885 0
-3018 -4886 0
-3019 -4887 0
-3020 -4888 0
-3017 -4397 0
-3018 -4398 0
-3019 -4399 0
-3020 -4400 0
-3017 -3041 0
-3018 -3042 0
-3019 -3043 0
-3020 -3044 0
-3021 -4621 0
-3022 -4622 0
-3023 -4623 0
-3024 -4624 0
-3021 -3101 0
-3022 -3102 0
-3023 -3103 0
-3024 -3104 0
-3021 -4893 0
-3022 -4894 0
-3023 -4895 0
-3024 -4896 0
-3021 -4141 0
-3022 -4142 0
-3023 -4143 0
-3024 -4144 0
-3021 -4161 0
-3022 -4162 0
-3023 -4163 0
-3024 -4164 0
-3021 -4169 0
-3022 -4170 0
-3023 -4171 0
-3024 -4172 0
-3021 -3289 0
-3022 -3290 0
-3023 -3291 0
-3024 -3292 0
-3021 -3049 0
-3022 -3050 0
-3023 -3051 0
-3024 -3052 0
-3021 -3957 0
-3022 -3958 0
-3023 -3959 0
-3024 -3960 0
-3025 -3841 0
-3026 -3842 0
-3027 -3843 0
-3028 -3844 0
-3025 -3077 0
-3026 -3078 0
-3027 -3079 0
-3028 -3080 0
-3025 -4625 0
-3026 -4626 0
-3027 -4627 0
-3028 -4628 0
-3025 -4713 0
-3026 -4714 0
-3027 -4715 0
-3028 -4716 0
-3025 -4009 0
-3026 -4010 0
-3027 -4011 0
-3028 -4012 0
-3025 -3117 0
-3026 -3118 0
-3027 -3119 0
-3028 -3120 0
-3025 -3037 0
-3026 -3038 0
-3027 -3039 0
-3028 -3040 0
-3025 -3301 0
-3026 -3302 0
-3027 -3303 0
-3028 -3304 0
-3025 -4329 0
-3026 -4330 0
-3027 -4331 0
-3028 -4332 0
-3029 -5253 0
-3030 -5254 0
-3031 -5255 0
-3032 -5256 0
-3029 -4397 0
-3030 -4398 0
-3031 -4399 0
-3032 -4400 0
-3029 -4289 0
-3030 -4290 0
-3031 -4291 0
-3032 -4292 0
-3029 -4333 0
-3030 -4334 0
-3031 -4335 0
-3032 -4336 0
-3033 -3849 0
-3034 -3850 0
-3035 -3851 0
-3036 -3852 0
-3033 -6009 0
-3034 -6010 0
-3035 -6011 0
-3036 -6012 0
-3033 -3129 0
-3034 -3130 0
-3035 -3131 0
-3036 -3132 0
-3033 -4409 0
-3034 -4410 0
-3035 -4411 0
-3036 -4412 0
-3033 -4853 0
-3034 -4854 0
-3035 -4855 0
-3036 -4856 0
-3033 -3037 0
-3034 -3038 0
-3035 -3039 0
-3036 -3040 0
-3033 -3297 0
-3034 -3298 0
-3035 -3299 0
-3036 -3300 0
-3033 -3045 0
-3034 -3046 0
-3035 -3047 0
-3036 -3048 0
-3033 -4345 0
-3034 -4346 0
-3035 -4347 0
-3036 -4348 0
-3037 -4117 0
-3038 -4118 0
-3039 -4119 0
-3040 -4120 0
-3037 -4121 0
-3038 -4122 0
-3039 -4123 0
-3040 -4124 0
-3037 -4173 0
-3038 -4174 0
-3039 -4175 0
-3040 -4176 0
-3037 -4293 0
-3038 -4294 0
-3039 -4295 0
-3040 -4296 0
-3037 -4301 0
-3038 -4302 0
-3039 -4303 0
-3040 -4304 0
-3037 -4349 0
-3038 -4350 0
-3039 -4351 0
-3040 -4352 0
-3037 -4401 0
-3038 -4402 0
-3039 -4403 0
-3040 -4404 0
-3037 -4413 0
-3038 -4414 0
-3039 -4415 0
-3040 -4416 0
-3037 -4497 0
-3038 -4498 0
-3039 -4499 0
-3040 -4500 0
-3037 -4625 0
-3038 -4626 0
-3039 -4627 0
-3040 -4628 0
-3037 -4633 0
-3038 -4634 0
-3039 -4635 0
-3040 -4636 0
-3037 -4853 0
-3038 -4854 0
-3039 -4855 0
-3040 -4856 0
-3037 -4857 0
-3038 -4858 0
-3039 -4859 0
-3040 -4860 0
-3037 -4901 0
-3038 -4902 0
-3039 -4903 0
-3040 -4904 0
-3037 -5033 0
-3038 -5034 0
-3039 -5035 0
-3040 -5036 0
-3037 -3041 0
-3038 -3042 0
-3039 -3043 0
-3040 -3044 0
-3037 -3049 0
-3038 -3050 0
-3039 -3051 0
-3040 -3052 0
-3037 -3057 0
-3038 -3058 0
-3039 -3059 0
-3040 -3060 0
-3037 -5129 0
-3038 -5130 0
-3039 -5131 0
-3040 -5132 0
-3037 -3133 0
-3038 -3134 0
-3039 -3135 0
-3040 -3136 0
-3037 -5257 0
-3038 -5258 0
-3039 -5259 0
-3040 -5260 0
-3037 -5265 0
-3038 -5266 0
-3039 -5267 0
-3040 -5268 0
-3037 -3305 0
-3038 -3306 0
-3039 -3307 0
-3040 -3308 0
-3037 -3309 0
-3038 -3310 0
-3039 -3311 0
-3040 -3312 0
-3037 -5573 0
-3038 -5574 0
-3039 -5575 0
-3040 -5576 0
-3037 -5577 0
-3038 -5578 0
-3039 -5579 0
-3040 -5580 0
-3037 -3573 0
-3038 -3574 0
-3039 -3575 0
-3040 -3576 0
-3037 -5713 0
-3038 -5714 0
-3039 -5715 0
-3040 -5716 0
-3037 -5717 0
-3038 -5718 0
-3039 -5719 0
-3040 -5720 0
-3037 -5725 0
-3038 -5726 0
-3039 -5727 0
-3040 -5728 0
-3037 -3785 0
-3038 -3786 0
-3039 -3787 0
-3040 -3788 0
-3037 -3793 0
-3038 -3794 0
-3039 -3795 0
-3040 -3796 0
-3037 -3853 0
-3038 -3854 0
-3039 -3855 0
-3040 -3856 0
-3037 -3885 0
-3038 -3886 0
-3039 -3887 0
-3040 -3888 0
-3037 -3969 0
-3038 -3970 0
-3039 -3971 0
-3040 -3972 0
-3037 -4013 0
-3038 -4014 0
-3039 -4015 0
-3040 -4016 0
-3041 -4629 0
-3042 -4630 0
-3043 -4631 0
-3044 -4632 0
-3041 -3137 0
-3042 -3138 0
-3043 -3139 0
-3044 -3140 0
-3041 -5721 0
-3042 -5722 0
-3043 -5723 0
-3044 -5724 0
-3041 -4717 0
-3042 -4718 0
-3043 -4719 0
-3044 -4720 0
-3041 -3797 0
-3042 -3798 0
-3043 -3799 0
-3044 -3800 0
-3041 -4857 0
-3042 -4858 0
-3043 -4859 0
-3044 -4860 0
-3041 -4353 0
-3042 -4354 0
-3043 -4355 0
-3044 -4356 0
-3041 -3857 0
-3042 -3858 0
-3043 -3859 0
-3044 -3860 0
-3041 -4905 0
-3042 -4906 0
-3043 -4907 0
-3044 -4908 0
-3041 -6013 0
-3042 -6014 0
-3043 -6015 0
-3044 -6016 0
-3041 -3973 0
-3042 -3974 0
-3043 -3975 0
-3044 -3976 0
-3041 -3053 0
-3042 -3054 0
-3043 -3055 0
-3044 -3056 0
-3041 -3061 0
-3042 -3062 0
-3043 -3063 0
-3044 -3064 0
-3041 -3069 0
-3042 -3070 0
-3043 -3071 0
-3044 -3072 0
-3045 -3977 0
-3046 -3978 0
-3047 -3979 0
-3048 -3980 0
-3045 -3049 0
-3046 -3050 0
-3047 -3051 0
-3048 -3052 0
-3045 -4073 0
-3046 -4074 0
-3047 -4075 0
-3048 -4076 0
-3045 -5269 0
-3046 -5270 0
-3047 -5271 0
-3048 -5272 0
-3045 -4909 0
-3046 -4910 0
-3047 -4911 0
-3048 -4912 0
-3045 -5677 0
-3046 -5678 0
-3047 -5679 0
-3048 -5680 0
-3045 -3141 0
-3046 -3142 0
-3047 -3143 0
-3048 -3144 0
-3045 -4193 0
-3046 -4194 0
-3047 -4195 0
-3048 -4196 0
-3049 -4633 0
-3050 -4634 0
-3051 -4635 0
-3052 -4636 0
-3049 -5681 0
-3050 -5682 0
-3051 -5683 0
-3052 -5684 0
-3049 -4153 0
-3050 -4154 0
-3051 -4155 0
-3052 -4156 0
-3049 -3145 0
-3050 -3146 0
-3051 -3147 0
-3052 -3148 0
-3049 -5193 0
-3050 -5194 0
-3051 -5195 0
-3052 -5196 0
-3049 -4185 0
-3050 -4186 0
-3051 -4187 0
-3052 -4188 0
-3049 -4289 0
-3050 -4290 0
-3051 -4291 0
-3052 -4292 0
-3049 -4309 0
-3050 -4310 0
-3051 -4311 0
-3052 -4312 0
-3049 -3297 0
-3050 -3298 0
-3051 -3299 0
-3052 -3300 0
-3049 -3313 0
-3050 -3314 0
-3051 -3315 0
-3052 -3316 0
-3049 -4357 0
-3050 -4358 0
-3051 -4359 0
-3052 -4360 0
-3049 -3861 0
-3050 -3862 0
-3051 -3863 0
-3052 -3864 0
-3049 -4405 0
-3050 -4406 0
-3051 -4407 0
-3052 -4408 0
-3049 -3053 0
-3050 -3054 0
-3051 -3055 0
-3052 -3056 0
-3053 -4361 0
-3054 -4362 0
-3055 -4363 0
-3056 -4364 0
-3053 -3865 0
-3054 -3866 0
-3055 -3867 0
-3056 -3868 0
-3053 -3317 0
-3054 -3318 0
-3055 -3319 0
-3056 -3320 0
-3053 -3889 0
-3054 -3890 0
-3055 -3891 0
-3056 -3892 0
-3053 -4417 0
-3054 -4418 0
-3055 -4419 0
-3056 -4420 0
-3053 -5865 0
-3054 -5866 0
-3055 -5867 0
-3056 -5868 0
-3053 -3149 0
-3054 -3150 0
-3055 -3151 0
-3056 -3152 0
-3053 -3793 0
-3054 -3794 0
-3055 -3795 0
-3056 -3796 0
-3057 -3077 0
-3058 -3078 0
-3059 -3079 0
-3060 -3080 0
-3057 -5717 0
-3058 -5718 0
-3059 -5719 0
-3060 -5720 0
-3057 -3169 0
-3058 -3170 0
-3059 -3171 0
-3060 -3172 0
-3057 -4721 0
-3058 -4722 0
-3059 -4723 0
-3060 -4724 0
-3057 -4305 0
-3058 -4306 0
-3059 -4307 0
-3060 -4308 0
-3057 -4365 0
-3058 -4366 0
-3059 -4367 0
-3060 -4368 0
-3057 -4377 0
-3058 -4378 0
-3059 -4379 0
-3060 -4380 0
-3057 -3877 0
-3058 -3878 0
-3059 -3879 0
-3060 -3880 0
-3057 -3901 0
-3058 -3902 0
-3059 -3903 0
-3060 -3904 0
-3057 -4433 0
-3058 -4434 0
-3059 -4435 0
-3060 -4436 0
-3057 -4457 0
-3058 -4458 0
-3059 -4459 0
-3060 -4460 0
-3057 -3961 0
-3058 -3962 0
-3059 -3963 0
-3060 -3964 0
-3057 -4501 0
-3058 -4502 0
-3059 -4503 0
-3060 -4504 0
-3057 -4041 0
-3058 -4042 0
-3059 -4043 0
-3060 -4044 0
-3057 -3061 0
-3058 -3062 0
-3059 -3063 0
-3060 -3064 0
-3061 -4369 0
-3062 -4370 0
-3063 -4371 0
-3064 -4372 0
-3061 -5721 0
-3062 -5722 0
-3063 -5723 0
-3064 -5724 0
-3061 -3173 0
-3062 -3174 0
-3063 -3175 0
-3064 -3176 0
-3065 -3805 0
-3066 -3806 0
-3067 -3807 0
-3068 -3808 0
-3065 -4369 0
-3066 -4370 0
-3067 -4371 0
-3068 -4372 0
-3065 -4381 0
-3066 -4382 0
-3067 -4383 0
-3068 -4384 0
-3065 -3917 0
-3066 -3918 0
-3067 -3919 0
-3068 -3920 0
-3065 -4429 0
-3066 -4430 0
-3067 -4431 0
-3068 -4432 0
-3065 -5481 0
-3066 -5482 0
-3067 -5483 0
-3068 -5484 0
-3065 -4057 0
-3066 -4058 0
-3067 -4059 0
-3068 -4060 0
-3065 -4077 0
-3066 -4078 0
-3067 -4079 0
-3068 -4080 0
-3069 -4133 0
-3070 -4134 0
-3071 -4135 0
-3072 -4136 0
-3069 -4141 0
-3070 -4142 0
-3071 -4143 0
-3072 -4144 0
-3069 -4513 0
-3070 -4514 0
-3071 -4515 0
-3072 -4516 0
-3069 -4917 0
-3070 -4918 0
-3071 -4919 0
-3072 -4920 0
-3073 -3093 0
-3074 -3094 0
-3075 -3095 0
-3076 -3096 0
-3073 -5729 0
-3074 -5730 0
-3075 -5731 0
-3076 -5732 0
-3073 -5733 0
-3074 -5734 0
-3075 -5735 0
-3076 -5736 0
-3073 -4141 0
-3074 -4142 0
-3075 -4143 0
-3076 -4144 0
-3073 -4321 0
-3074 -4322 0
-3075 -4323 0
-3076 -4324 0
-3073 -3813 0
-3074 -3814 0
-3075 -3815 0
-3076 -3816 0
-3077 -3329 0
-3078 -3330 0
-3079 -3331 0
-3080 -3332 0
-3077 -4865 0
-3078 -4866 0
-3079 -4867 0
-3080 -4868 0
-3077 -5393 0
-3078 -5394 0
-3079 -5395 0
-3080 -5396 0
-3077 -3353 0
-3078 -3354 0
-3079 -3355 0
-3080 -3356 0
-3077 -3105 0
-3078 -3106 0
-3079 -3107 0
-3080 -3108 0
-3077 -5745 0
-3078 -5746 0
-3079 -5747 0
-3080 -5748 0
-3077 -4457 0
-3078 -4458 0
-3079 -4459 0
-3080 -4460 0
-3081 -3085 0
-3082 -3086 0
-3083 -3087 0
-3084 -3088 0
-3081 -3345 0
-3082 -3346 0
-3083 -3347 0
-3084 -3348 0
-3081 -3093 0
-3082 -3094 0
-3083 -3095 0
-3084 -3096 0
-3081 -3729 0
-3082 -3730 0
-3083 -3731 0
-3084 -3732 0
-3081 -4645 0
-3082 -4646 0
-3083 -4647 0
-3084 -4648 0
-3081 -5133 0
-3082 -5134 0
-3083 -5135 0
-3084 -5136 0
-3081 -3117 0
-3082 -3118 0
-3083 -3119 0
-3084 -3120 0
-3081 -5293 0
-3082 -5294 0
-3083 -5295 0
-3084 -5296 0
-3081 -5737 0
-3082 -5738 0
-3083 -5739 0
-3084 -5740 0
-3081 -3821 0
-3082 -3822 0
-3083 -3823 0
-3084 -3824 0
-3081 -3325 0
-3082 -3326 0
-3083 -3327 0
-3084 -3328 0
-3085 -3097 0
-3086 -3098 0
-3087 -3099 0
-3088 -3100 0
-3085 -3121 0
-3086 -3122 0
-3087 -3123 0
-3088 -3124 0
-3085 -4401 0
-3086 -4402 0
-3087 -4403 0
-3088 -4404 0
-3085 -5297 0
-3086 -5298 0
-3087 -5299 0
-3088 -5300 0
-3085 -5553 0
-3086 -5554 0
-3087 -5555 0
-3088 -5556 0
-3085 -4317 0
-3086 -4318 0
-3087 -4319 0
-3088 -4320 0
-3085 -3825 0
-3086 -3826 0
-3087 -3827 0
-3088 -3828 0
-3089 -4861 0
-3090 -4862 0
-3091 -4863 0
-3092 -4864 0
-3089 -3093 0
-3090 -3094 0
-3091 -3095 0
-3092 -3096 0
-3089 -4009 0
-3090 -4010 0
-3091 -4011 0
-3092 -4012 0
-3089 -3129 0
-3090 -3130 0
-3091 -3131 0
-3092 -3132 0
-3089 -5741 0
-3090 -5742 0
-3091 -5743 0
-3092 -5744 0
-3089 -4461 0
-3090 -4462 0
-3091 -4463 0
-3092 -4464 0
-3089 -4349 0
-3090 -4350 0
-3091 -4351 0
-3092 -4352 0
-3089 -4217 0
-3090 -4218 0
-3091 -4219 0
-3092 -4220 0
-3089 -3197 0
-3090 -3198 0
-3091 -3199 0
-3092 -3200 0
-3093 -4097 0
-3094 -4098 0
-3095 -4099 0
-3096 -4100 0
-3093 -3097 0
-3094 -3098 0
-3095 -3099 0
-3096 -3100 0
-3093 -3101 0
-3094 -3102 0
-3095 -3103 0
-3096 -3104 0
-3093 -4645 0
-3094 -4646 0
-3095 -4647 0
-3096 -4648 0
-3093 -4649 0
-3094 -4650 0
-3095 -4651 0
-3096 -4652 0
-3093 -5137 0
-3094 -5138 0
-3095 -5139 0
-3096 -5140 0
-3093 -4153 0
-3094 -4154 0
-3095 -4155 0
-3096 -4156 0
-3093 -3133 0
-3094 -3134 0
-3095 -3135 0
-3096 -3136 0
-3093 -5729 0
-3094 -5730 0
-3095 -5731 0
-3096 -5732 0
-3093 -4209 0
-3094 -4210 0
-3095 -4211 0
-3096 -4212 0
-3093 -5745 0
-3094 -5746 0
-3095 -5747 0
-3096 -5748 0
-3093 -5757 0
-3094 -5758 0
-3095 -5759 0
-3096 -5760 0
-3093 -3201 0
-3094 -3202 0
-3095 -3203 0
-3096 -3204 0
-3093 -5281 0
-3094 -5282 0
-3095 -5283 0
-3096 -5284 0
-3093 -5301 0
-3094 -5302 0
-3095 -5303 0
-3096 -5304 0
-3093 -5941 0
-3094 -5942 0
-3095 -5943 0
-3096 -5944 0
-3093 -3817 0
-3094 -3818 0
-3095 -3819 0
-3096 -3820 0
-3093 -4329 0
-3094 -4330 0
-3095 -4331 0
-3096 -4332 0
-3093 -3833 0
-3094 -3834 0
-3095 -3835 0
-3096 -3836 0
-3093 -4861 0
-3094 -4862 0
-3095 -4863 0
-3096 -4864 0
-3093 -3329 0
-3094 -3330 0
-3095 -3331 0
-3096 -3332 0
-3093 -4353 0
-3094 -4354 0
-3095 -4355 0
-3096 -4356 0
-3093 -4865 0
-3094 -4866 0
-3095 -4867 0
-3096 -4868 0
-3093 -5881 0
-3094 -5882 0
-3095 -5883 0
-3096 -5884 0
-3093 -3353 0
-3094 -3354 0
-3095 -3355 0
-3096 -3356 0
-3093 -4393 0
-3094 -4394 0
-3095 -4395 0
-3096 -4396 0
-3093 -3893 0
-3094 -3894 0
-3095 -3895 0
-3096 -3896 0
-3093 -4409 0
-3094 -4410 0
-3095 -4411 0
-3096 -4412 0
-3093 -4929 0
-3094 -4930 0
-3095 -4931 0
-3096 -4932 0
-3093 -5929 0
-3094 -5930 0
-3095 -5931 0
-3096 -5932 0
-3093 -3937 0
-3094 -3938 0
-3095 -3939 0
-3096 -3940 0
-3093 -4453 0
-3094 -4454 0
-3095 -4455 0
-3096 -4456 0
-3093 -4505 0
-3094 -4506 0
-3095 -4507 0
-3096 -4508 0
-3093 -4001 0
-3094 -4002 0
-3095 -4003 0
-3096 -4004 0
-3093 -5557 0
-3094 -5558 0
-3095 -5559 0
-3096 -5560 0
-3093 -4065 0
-3094 -4066 0
-3095 -4067 0
-3096 -4068 0
-3097 -4101 0
-3098 -4102 0
-3099 -4103 0
-3100 -4104 0
-3097 -4641 0
-3098 -4642 0
-3099 -4643 0
-3100 -4644 0
-3097 -3137 0
-3098 -3138 0
-3099 -3139 0
-3100 -3140 0
-3097 -4189 0
-3098 -4190 0
-3099 -4191 0
-3100 -4192 0
-3097 -4213 0
-3098 -4214 0
-3099 -4215 0
-3100 -4216 0
-3097 -5749 0
-3098 -5750 0
-3099 -5751 0
-3100 -5752 0
-3097 -3729 0
-3098 -3730 0
-3099 -3731 0
-3100 -3732 0
-3097 -3733 0
-3098 -3734 0
-3099 -3735 0
-3100 -3736 0
-3097 -3753 0
-3098 -3754 0
-3099 -3755 0
-3100 -3756 0
-3097 -3821 0
-3098 -3822 0
-3099 -3823 0
-3100 -3824 0
-3097 -4865 0
-3098 -4866 0
-3099 -4867 0
-3100 -4868 0
-3097 -3333 0
-3098 -3334 0
-3099 -3335 0
-3100 -3336 0
-3097 -3357 0
-3098 -3358 0
-3099 -3359 0
-3100 -3360 0
-3097 -4405 0
-3098 -4406 0
-3099 -4407 0
-3100 -4408 0
-3097 -4413 0
-3098 -4414 0
-3099 -4415 0
-3100 -4416 0
-3097 -4933 0
-3098 -4934 0
-3099 -4935 0
-3100 -4936 0
-3097 -5933 0
-3098 -5934 0
-3099 -5935 0
-3100 -5936 0
-3097 -5945 0
-3098 -5946 0
-3099 -5947 0
-3100 -5948 0
-3097 -5561 0
-3098 -5562 0
-3099 -5563 0
-3100 -5564 0
-3097 -4069 0
-3098 -4070 0
-3099 -4071 0
-3100 -4072 0
-3101 -4649 0
-3102 -4650 0
-3103 -4651 0
-3104 -4652 0
-3101 -3145 0
-3102 -3146 0
-3103 -3147 0
-3104 -3148 0
-3101 -4217 0
-3102 -4218 0
-3103 -4219 0
-3104 -4220 0
-3101 -5753 0
-3102 -5754 0
-3103 -5755 0
-3104 -5756 0
-3101 -5765 0
-3102 -5766 0
-3103 -5767 0
-3104 -5768 0
-3101 -3757 0
-3102 -3758 0
-3103 -3759 0
-3104 -3760 0
-3101 -4321 0
-3102 -4322 0
-3103 -4323 0
-3104 -4324 0
-3101 -4361 0
-3102 -4362 0
-3103 -4363 0
-3104 -4364 0
-3101 -3341 0
-3102 -3342 0
-3103 -3343 0
-3104 -3344 0
-3101 -3385 0
-3102 -3386 0
-3103 -3387 0
-3104 -3388 0
-3101 -3901 0
-3102 -3902 0
-3103 -3903 0
-3104 -3904 0
-3101 -4457 0
-3102 -4458 0
-3103 -4459 0
-3104 -4460 0
-3101 -4469 0
-3102 -4470 0
-3103 -4471 0
-3104 -4472 0
-3101 -4009 0
-3102 -4010 0
-3103 -4011 0
-3104 -4012 0
-3105 -3337 0
-3106 -3338 0
-3107 -3339 0
-3108 -3340 0
-3105 -4369 0
-3106 -4370 0
-3107 -4371 0
-3108 -4372 0
-3105 -4837 0
-3106 -4838 0
-3107 -4839 0
-3108 -4840 0
-3105 -4885 0
-3106 -4886 0
-3107 -4887 0
-3108 -4888 0
-3105 -5145 0
-3106 -5146 0
-3107 -5147 0
-3108 -5148 0
-3105 -5773 0
-3106 -5774 0
-3107 -5775 0
-3108 -5776 0
-3105 -3369 0
-3106 -3370 0
-3107 -3371 0
-3108 -3372 0
-3105 -4157 0
-3106 -4158 0
-3107 -4159 0
-3108 -4160 0
-3105 -4473 0
-3106 -4474 0
-3107 -4475 0
-3108 -4476 0
-3105 -5233 0
-3106 -5234 0
-3107 -5235 0
-3108 -5236 0
-3109 -3845 0
-3110 -3846 0
-3111 -3847 0
-3112 -3848 0
-3109 -5149 0
-3110 -5150 0
-3111 -5151 0
-3112 -5152 0
-3109 -3117 0
-3110 -3118 0
-3111 -3119 0
-3112 -3120 0
-3109 -4401 0
-3110 -4402 0
-3111 -4403 0
-3112 -4404 0
-3109 -4653 0
-3110 -4654 0
-3111 -4655 0
-3112 -4656 0
-3113 -3205 0
-3114 -3206 0
-3115 -3207 0
-3116 -3208 0
-3113 -4869 0
-3114 -4870 0
-3115 -4871 0
-3116 -4872 0
-3113 -3853 0
-3114 -3854 0
-3115 -3855 0
-3116 -3856 0
-3113 -6021 0
-3114 -6022 0
-3115 -6023 0
-3116 -6024 0
-3113 -5153 0
-3114 -5154 0
-3115 -5155 0
-3116 -5156 0
-3113 -3117 0
-3114 -3118 0
-3115 -3119 0
-3116 -3120 0
-3113 -3129 0
-3114 -3130 0
-3115 -3131 0
-3116 -3132 0
-3113 -4657 0
-3114 -4658 0
-3115 -4659 0
-3116 -4660 0
-3113 -4937 0
-3114 -4938 0
-3115 -4939 0
-3116 -4940 0
-3113 -5081 0
-3114 -5082 0
-3115 -5083 0
-3116 -5084 0
-3117 -3593 0
-3118 -3594 0
-3119 -3595 0
-3120 -3596 0
-3117 -4073 0
-3118 -4074 0
-3119 -4075 0
-3120 -4076 0
-3117 -4105 0
-3118 -4106 0
-3119 -4107 0
-3120 -4108 0
-3117 -3121 0
-3118 -3122 0
-3119 -3123 0
-3120 -3124 0
-3117 -4653 0
-3118 -4654 0
-3119 -4655 0
-3120 -4656 0
-3117 -4661 0
-3118 -4662 0
-3119 -4663 0
-3120 -4664 0
-3117 -3133 0
-3118 -3134 0
-3119 -3135 0
-3120 -3136 0
-3117 -4161 0
-3118 -4162 0
-3119 -4163 0
-3120 -4164 0
-3117 -5157 0
-3118 -5158 0
-3119 -5159 0
-3120 -5160 0
-3117 -3161 0
-3118 -3162 0
-3119 -3163 0
-3120 -3164 0
-3117 -5737 0
-3118 -5738 0
-3119 -5739 0
-3120 -5740 0
-3117 -4221 0
-3118 -4222 0
-3119 -4223 0
-3120 -4224 0
-3117 -5761 0
-3118 -5762 0
-3119 -5763 0
-3120 -5764 0
-3117 -4741 0
-3118 -4742 0
-3119 -4743 0
-3120 -4744 0
-3117 -3209 0
-3118 -3210 0
-3119 -3211 0
-3120 -3212 0
-3117 -4745 0
-3118 -4746 0
-3119 -4747 0
-3120 -4748 0
-3117 -4765 0
-3118 -4766 0
-3119 -4767 0
-3120 -4768 0
-3117 -5285 0
-3118 -5286 0
-3119 -5287 0
-3120 -5288 0
-3117 -5309 0
-3118 -5310 0
-3119 -5311 0
-3120 -5312 0
-3117 -5873 0
-3118 -5874 0
-3119 -5875 0
-3120 -5876 0
-3117 -4345 0
-3118 -4346 0
-3119 -4347 0
-3120 -4348 0
-3117 -3841 0
-3118 -3842 0
-3119 -3843 0
-3120 -3844 0
-3117 -4869 0
-3118 -4870 0
-3119 -4871 0
-3120 -4872 0
-3117 -4873 0
-3118 -4874 0
-3119 -4875 0
-3120 -4876 0
-3117 -3857 0
-3118 -3858 0
-3119 -3859 0
-3120 -3860 0
-3117 -3349 0
-3118 -3350 0
-3119 -3351 0
-3120 -3352 0
-3117 -4373 0
-3118 -4374 0
-3119 -4375 0
-3120 -4376 0
-3117 -3361 0
-3118 -3362 0
-3119 -3363 0
-3120 -3364 0
-3117 -4389 0
-3118 -4390 0
-3119 -4391 0
-3120 -4392 0
-3117 -3381 0
-3118 -3382 0
-3119 -3383 0
-3120 -3384 0
-3117 -4405 0
-3118 -4406 0
-3119 -4407 0
-3120 -4408 0
-3117 -3909 0
-3118 -3910 0
-3119 -3911 0
-3120 -3912 0
-3117 -4421 0
-3118 -4422 0
-3119 -4423 0
-3120 -4424 0
-3117 -4941 0
-3118 -4942 0
-3119 -4943 0
-3120 -4944 0
-3117 -4461 0
-3118 -4462 0
-3119 -4463 0
-3120 -4464 0
-3117 -4509 0
-3118 -4510 0
-3119 -4511 0
-3120 -4512 0
-3117 -4021 0
-3118 -4022 0
-3119 -4023 0
-3120 -4024 0
-3117 -6081 0
-3118 -6082 0
-3119 -6083 0
-3120 -6084 0
-3117 -6085 0
-3118 -6086 0
-3119 -6087 0
-3120 -6088 0
-3117 -5085 0
-3118 -5086 0
-3119 -5087 0
-3120 -5088 0
-3121 -3597 0
-3122 -3598 0
-3123 -3599 0
-3124 -3600 0
-3121 -4665 0
-3122 -4666 0
-3123 -4667 0
-3124 -4668 0
-3121 -3137 0
-3122 -3138 0
-3123 -3139 0
-3124 -3140 0
-3121 -5765 0
-3122 -5766 0
-3123 -5767 0
-3124 -5768 0
-3121 -3213 0
-3122 -3214 0
-3123 -3215 0
-3124 -3216 0
-3121 -4349 0
-3122 -4350 0
-3123 -4351 0
-3124 -4352 0
-3121 -3845 0
-3122 -3846 0
-3123 -3847 0
-3124 -3848 0
-3121 -4873 0
-3122 -4874 0
-3123 -4875 0
-3124 -4876 0
-3121 -3385 0
-3122 -3386 0
-3123 -3387 0
-3124 -3388 0
-3121 -6025 0
-3122 -6026 0
-3123 -6027 0
-3124 -6028 0
-3125 -4877 0
-3126 -4878 0
-3127 -4879 0
-3128 -4880 0
-3125 -3353 0
-3126 -3354 0
-3127 -3355 0
-3128 -3356 0
-3125 -5161 0
-3126 -5162 0
-3127 -5163 0
-3128 -5164 0
-3125 -3129 0
-3126 -3130 0
-3127 -3131 0
-3128 -3132 0
-3125 -4025 0
-3126 -4026 0
-3127 -4027 0
-3128 -4028 0
-3129 -6149 0
-3130 -6150 0
-3131 -6151 0
-3132 -6152 0
-3129 -4109 0
-3130 -4110 0
-3131 -4111 0
-3132 -4112 0
-3129 -4077 0
-3130 -4078 0
-3131 -4079 0
-3132 -4080 0
-3129 -5165 0
-3130 -5166 0
-3131 -5167 0
-3132 -5168 0
-3129 -4657 0
-3130 -4658 0
-3131 -4659 0
-3132 -4660 0
-3129 -3133 0
-3130 -3134 0
-3131 -3135 0
-3132 -3136 0
-3129 -4669 0
-3130 -4670 0
-3131 -4671 0
-3132 -4672 0
-3129 -3141 0
-3130 -3142 0
-3131 -3143 0
-3132 -3144 0
-3129 -4165 0
-3130 -4166 0
-3131 -4167 0
-3132 -4168 0
-3129 -3165 0
-3130 -3166 0
-3131 -3167 0
-3132 -3168 0
-3129 -6125 0
-3130 -6126 0
-3131 -6127 0
-3132 -6128 0
-3129 -5741 0
-3130 -5742 0
-3131 -5743 0
-3132 -5744 0
-3129 -4229 0
-3130 -4230 0
-3131 -4231 0
-3132 -4232 0
-3129 -5769 0
-3130 -5770 0
-3131 -5771 0
-3132 -5772 0
-3129 -3217 0
-3130 -3218 0
-3131 -3219 0
-3132 -3220 0
-3129 -3745 0
-3130 -3746 0
-3131 -3747 0
-3132 -3748 0
-3129 -5289 0
-3130 -5290 0
-3131 -5291 0
-3132 -5292 0
-3129 -5801 0
-3130 -5802 0
-3131 -5803 0
-3132 -5804 0
-3129 -3269 0
-3130 -3270 0
-3131 -3271 0
-3132 -3272 0
-3129 -5313 0
-3130 -5314 0
-3131 -5315 0
-3132 -5316 0
-3129 -3849 0
-3130 -3850 0
-3131 -3851 0
-3132 -3852 0
-3129 -4877 0
-3130 -4878 0
-3131 -4879 0
-3132 -4880 0
-3129 -3345 0
-3130 -3346 0
-3131 -3347 0
-3132 -3348 0
-3129 -3861 0
-3130 -3862 0
-3131 -3863 0
-3132 -3864 0
-3129 -3357 0
-3130 -3358 0
-3131 -3359 0
-3132 -3360 0
-3129 -3365 0
-3130 -3366 0
-3131 -3367 0
-3132 -3368 0
-3129 -4377 0
-3130 -4378 0
-3131 -4379 0
-3132 -4380 0
-3129 -4881 0
-3130 -4882 0
-3131 -4883 0
-3132 -4884 0
-3129 -3389 0
-3130 -3390 0
-3131 -3391 0
-3132 -3392 0
-3129 -3913 0
-3130 -3914 0
-3131 -3915 0
-3132 -3916 0
-3129 -4425 0
-3130 -4426 0
-3131 -4427 0
-3132 -4428 0
-3129 -4945 0
-3130 -4946 0
-3131 -4947 0
-3132 -4948 0
-3129 -4465 0
-3130 -4466 0
-3131 -4467 0
-3132 -4468 0
-3129 -6041 0
-3130 -6042 0
-3131 -6043 0
-3132 -6044 0
-3129 -4513 0
-3130 -4514 0
-3131 -4515 0
-3132 -4516 0
-3129 -4017 0
-3130 -4018 0
-3131 -4019 0
-3132 -4020 0
-3129 -4029 0
-3130 -4030 0
-3131 -4031 0
-3132 -4032 0
-3129 -5089 0
-3130 -5090 0
-3131 -5091 0
-3132 -5092 0
-3133 -5169 0
-3134 -5170 0
-3135 -5171 0
-3136 -5172 0
-3133 -4661 0
-3134 -4662 0
-3135 -4663 0
-3136 -4664 0
-3133 -3137 0
-3134 -3138 0
-3135 -3139 0
-3136 -3140 0
-3133 -4673 0
-3134 -4674 0
-3135 -4675 0
-3136 -4676 0
-3133 -3145 0
-3134 -3146 0
-3135 -3147 0
-3136 -3148 0
-3133 -3169 0
-3134 -3170 0
-3135 -3171 0
-3136 -3172 0
-3133 -5745 0
-3134 -5746 0
-3135 -5747 0
-3136 -5748 0
-3133 -4233 0
-3134 -4234 0
-3135 -4235 0
-3136 -4236 0
-3133 -5773 0
-3134 -5774 0
-3135 -5775 0
-3136 -5776 0
-3133 -3221 0
-3134 -3222 0
-3135 -3223 0
-3136 -3224 0
-3133 -5293 0
-3134 -5294 0
-3135 -5295 0
-3136 -5296 0
-3133 -5317 0
-3134 -5318 0
-3135 -5319 0
-3136 -5320 0
-3133 -3853 0
-3134 -3854 0
-3135 -3855 0
-3136 -3856 0
-3133 -4881 0
-3134 -4882 0
-3135 -4883 0
-3136 -4884 0
-3133 -4885 0
-3134 -4886 0
-3135 -4887 0
-3136 -4888 0
-3133 -3865 0
-3134 -3866 0
-3135 -3867 0
-3136 -3868 0
-3133 -3369 0
-3134 -3370 0
-3135 -3371 0
-3136 -3372 0
-3133 -3917 0
-3134 -3918 0
-3135 -3919 0
-3136 -3920 0
-3133 -4429 0
-3134 -4430 0
-3135 -4431 0
-3136 -4432 0
-3133 -4949 0
-3134 -4950 0
-3135 -4951 0
-3136 -4952 0
-3133 -4517 0
-3134 -4518 0
-3135 -4519 0
-3136 -4520 0
-3137 -4113 0
-3138 -4114 0
-3139 -4115 0
-3140 -4116 0
-3137 -3605 0
-3138 -3606 0
-3139 -3607 0
-3140 -3608 0
-3137 -4665 0
-3138 -4666 0
-3139 -4667 0
-3140 -4668 0
-3137 -5173 0
-3138 -5174 0
-3139 -5175 0
-3140 -5176 0
-3137 -4677 0
-3138 -4678 0
-3139 -4679 0
-3140 -4680 0
-3137 -4169 0
-3138 -4170 0
-3139 -4171 0
-3140 -4172 0
-3137 -3149 0
-3138 -3150 0
-3139 -3151 0
-3140 -3152 0
-3137 -3173 0
-3138 -3174 0
-3139 -3175 0
-3140 -3176 0
-3137 -5749 0
-3138 -5750 0
-3139 -5751 0
-3140 -5752 0
-3137 -4237 0
-3138 -4238 0
-3139 -4239 0
-3140 -4240 0
-3137 -4745 0
-3138 -4746 0
-3139 -4747 0
-3140 -4748 0
-3137 -4749 0
-3138 -4750 0
-3139 -4751 0
-3140 -4752 0
-3137 -3225 0
-3138 -3226 0
-3139 -3227 0
-3140 -3228 0
-3137 -4765 0
-3138 -4766 0
-3139 -4767 0
-3140 -4768 0
-3137 -5777 0
-3138 -5778 0
-3139 -5779 0
-3140 -5780 0
-3137 -5297 0
-3138 -5298 0
-3139 -5299 0
-3140 -5300 0
-3137 -5321 0
-3138 -5322 0
-3139 -5323 0
-3140 -5324 0
-3137 -4357 0
-3138 -4358 0
-3139 -4359 0
-3140 -4360 0
-3137 -3857 0
-3138 -3858 0
-3139 -3859 0
-3140 -3860 0
-3137 -3349 0
-3138 -3350 0
-3139 -3351 0
-3140 -3352 0
-3137 -4885 0
-3138 -4886 0
-3139 -4887 0
-3140 -4888 0
-3137 -3869 0
-3138 -3870 0
-3139 -3871 0
-3140 -3872 0
-3137 -4889 0
-3138 -4890 0
-3139 -4891 0
-3140 -4892 0
-3137 -3373 0
-3138 -3374 0
-3139 -3375 0
-3140 -3376 0
-3137 -3393 0
-3138 -3394 0
-3139 -3395 0
-3140 -3396 0
-3137 -3921 0
-3138 -3922 0
-3139 -3923 0
-3140 -3924 0
-3137 -4433 0
-3138 -4434 0
-3139 -4435 0
-3140 -4436 0
-3137 -3941 0
-3138 -3942 0
-3139 -3943 0
-3140 -3944 0
-3137 -4953 0
-3138 -4954 0
-3139 -4955 0
-3140 -4956 0
-3137 -4469 0
-3138 -4470 0
-3139 -4471 0
-3140 -4472 0
-3137 -4021 0
-3138 -4022 0
-3139 -4023 0
-3140 -4024 0
-3137 -4521 0
-3138 -4522 0
-3139 -4523 0
-3140 -4524 0
-3137 -4081 0
-3138 -4082 0
-3139 -4083 0
-3140 -4084 0
-3141 -4669 0
-3142 -4670 0
-3143 -4671 0
-3144 -4672 0
-3141 -3145 0
-3142 -3146 0
-3143 -3147 0
-3144 -3148 0
-3141 -3177 0
-3142 -3178 0
-3143 -3179 0
-3144 -3180 0
-3141 -5325 0
-3142 -5326 0
-3143 -5327 0
-3144 -5328 0
-3141 -4349 0
-3142 -4350 0
-3143 -4351 0
-3144 -4352 0
-3141 -5397 0
-3142 -5398 0
-3143 -5399 0
-3144 -5400 0
-3141 -3353 0
-3142 -3354 0
-3143 -3355 0
-3144 -3356 0
-3141 -4893 0
-3142 -4894 0
-3143 -4895 0
-3144 -4896 0
-3141 -4437 0
-3142 -4438 0
-3143 -4439 0
-3144 -4440 0
-3141 -4481 0
-3142 -4482 0
-3143 -4483 0
-3144 -4484 0
-3141 -3997 0
-3142 -3998 0
-3143 -3999 0
-3144 -4000 0
-3141 -4025 0
-3142 -4026 0
-3143 -4027 0
-3144 -4028 0
-3141 -4041 0
-3142 -4042 0
-3143 -4043 0
-3144 -4044 0
-3141 -5085 0
-3142 -5086 0
-3143 -5087 0
-3144 -5088 0
-3141 -4069 0
-3142 -4070 0
-3143 -4071 0
-3144 -4072 0
-3145 -5177 0
-3146 -5178 0
-3147 -5179 0
-3148 -5180 0
-3145 -4673 0
-3146 -4674 0
-3147 -4675 0
-3148 -4676 0
-3145 -4681 0
-3146 -4682 0
-3147 -4683 0
-3148 -4684 0
-3145 -3149 0
-3146 -3150 0
-3147 -3151 0
-3148 -3152 0
-3145 -3153 0
-3146 -3154 0
-3147 -3155 0
-3148 -3156 0
-3145 -4177 0
-3146 -4178 0
-3147 -4179 0
-3148 -4180 0
-3145 -4897 0
-3146 -4898 0
-3147 -4899 0
-3148 -4900 0
-3145 -3181 0
-3146 -3182 0
-3147 -3183 0
-3148 -3184 0
-3145 -5753 0
-3146 -5754 0
-3147 -5755 0
-3148 -5756 0
-3145 -4241 0
-3146 -4242 0
-3147 -4243 0
-3148 -4244 0
-3145 -5781 0
-3146 -5782 0
-3147 -5783 0
-3148 -5784 0
-3145 -3233 0
-3146 -3234 0
-3147 -3235 0
-3148 -3236 0
-3145 -3745 0
-3146 -3746 0
-3147 -3747 0
-3148 -3748 0
-3145 -5301 0
-3146 -5302 0
-3147 -5303 0
-3148 -5304 0
-3145 -5329 0
-3146 -5330 0
-3147 -5331 0
-3148 -5332 0
-3145 -4353 0
-3146 -4354 0
-3147 -4355 0
-3148 -4356 0
-3145 -4365 0
-3146 -4366 0
-3147 -4367 0
-3148 -4368 0
-3145 -3861 0
-3146 -3862 0
-3147 -3863 0
-3148 -3864 0
-3145 -3357 0
-3146 -3358 0
-3147 -3359 0
-3148 -3360 0
-3145 -3873 0
-3146 -3874 0
-3147 -3875 0
-3148 -3876 0
-3145 -4385 0
-3146 -4386 0
-3147 -4387 0
-3148 -4388 0
-3145 -4393 0
-3146 -4394 0
-3147 -4395 0
-3148 -4396 0
-3145 -3377 0
-3146 -3378 0
-3147 -3379 0
-3148 -3380 0
-3145 -4893 0
-3146 -4894 0
-3147 -4895 0
-3148 -4896 0
-3145 -3397 0
-3146 -3398 0
-3147 -3399 0
-3148 -3400 0
-3145 -3925 0
-3146 -3926 0
-3147 -3927 0
-3148 -3928 0
-3145 -4441 0
-3146 -4442 0
-3147 -4443 0
-3148 -4444 0
-3145 -4957 0
-3146 -4958 0
-3147 -4959 0
-3148 -4960 0
-3145 -4473 0
-3146 -4474 0
-3147 -4475 0
-3148 -4476 0
-3145 -4525 0
-3146 -4526 0
-3147 -4527 0
-3148 -4528 0
-3145 -4029 0
-3146 -4030 0
-3147 -4031 0
-3148 -4032 0
-3149 -4245 0
-3150 -4246 0
-3151 -4247 0
-3152 -4248 0
-3149 -3865 0
-3150 -3866 0
-3151 -3867 0
-3152 -3868 0
-3149 -4369 0
-3150 -4370 0
-3151 -4371 0
-3152 -4372 0
-3149 -4897 0
-3150 -4898 0
-3151 -4899 0
-3152 -4900 0
-3149 -4677 0
-3150 -4678 0
-3151 -4679 0
-3152 -4680 0
-3149 -4181 0
-3150 -4182 0
-3151 -4183 0
-3152 -4184 0
-3149 -3929 0
-3150 -3930 0
-3151 -3931 0
-3152 -3932 0
-3149 -4445 0
-3150 -4446 0
-3151 -4447 0
-3152 -4448 0
-3153 -4361 0
-3154 -4362 0
-3155 -4363 0
-3156 -4364 0
-3153 -4041 0
-3154 -4042 0
-3155 -4043 0
-3156 -4044 0
-3153 -4681 0
-3154 -4682 0
-3155 -4683 0
-3156 -4684 0
-3157 -5181 0
-3158 -5182 0
-3159 -5183 0
-3160 -5184 0
-3157 -4701 0
-3158 -4702 0
-3159 -4703 0
-3160 -4704 0
-3157 -3185 0
-3158 -3186 0
-3159 -3187 0
-3160 -3188 0
-3157 -4729 0
-3158 -4730 0
-3159 -4731 0
-3160 -4732 0
-3157 -5757 0
-3158 -5758 0
-3159 -5759 0
-3160 -5760 0
-3157 -3273 0
-3158 -3274 0
-3159 -3275 0
-3160 -3276 0
-3157 -5333 0
-3158 -5334 0
-3159 -5335 0
-3160 -5336 0
-3157 -4429 0
-3158 -4430 0
-3159 -4431 0
-3160 -4432 0
-3157 -5549 0
-3158 -5550 0
-3159 -5551 0
-3160 -5552 0
-3161 -4685 0
-3162 -4686 0
-3163 -4687 0
-3164 -4688 0
-3161 -3169 0
-3162 -3170 0
-3163 -3171 0
-3164 -3172 0
-3161 -5761 0
-3162 -5762 0
-3163 -5763 0
-3164 -5764 0
-3161 -4249 0
-3162 -4250 0
-3163 -4251 0
-3164 -4252 0
-3161 -3237 0
-3162 -3238 0
-3163 -3239 0
-3164 -3240 0
-3161 -5337 0
-3162 -5338 0
-3163 -5339 0
-3164 -5340 0
-3161 -4401 0
-3162 -4402 0
-3163 -4403 0
-3164 -4404 0
-3161 -4437 0
-3162 -4438 0
-3163 -4439 0
-3164 -4440 0
-3161 -4961 0
-3162 -4962 0
-3163 -4963 0
-3164 -4964 0
-3161 -4009 0
-3162 -4010 0
-3163 -4011 0
-3164 -4012 0
-3161 -5581 0
-3162 -5582 0
-3163 -5583 0
-3164 -5584 0
-3165 -6153 0
-3166 -6154 0
-3167 -6155 0
-3168 -6156 0
-3165 -5185 0
-3166 -5186 0
-3167 -5187 0
-3168 -5188 0
-3165 -4189 0
-3166 -4190 0
-3167 -4191 0
-3168 -4192 0
-3165 -3169 0
-3166 -3170 0
-3167 -3171 0
-3168 -3172 0
-3165 -3177 0
-3166 -3178 0
-3167 -3179 0
-3168 -3180 0
-3165 -4733 0
-3166 -4734 0
-3167 -4735 0
-3168 -4736 0
-3165 -5769 0
-3166 -5770 0
-3167 -5771 0
-3168 -5772 0
-3165 -4253 0
-3166 -4254 0
-3167 -4255 0
-3168 -4256 0
-3165 -3241 0
-3166 -3242 0
-3167 -3243 0
-3168 -3244 0
-3165 -5401 0
-3166 -5402 0
-3167 -5403 0
-3168 -5404 0
-3165 -4901 0
-3166 -4902 0
-3167 -4903 0
-3168 -4904 0
-3165 -3381 0
-3166 -3382 0
-3167 -3383 0
-3168 -3384 0
-3165 -3393 0
-3166 -3394 0
-3167 -3395 0
-3168 -3396 0
-3165 -3905 0
-3166 -3906 0
-3167 -3907 0
-3168 -3908 0
-3165 -3401 0
-3166 -3402 0
-3167 -3403 0
-3168 -3404 0
-3165 -5489 0
-3166 -5490 0
-3167 -5491 0
-3168 -5492 0
-3165 -4477 0
-3166 -4478 0
-3167 -4479 0
-3168 -4480 0
-3165 -4489 0
-3166 -4490 0
-3167 -4491 0
-3168 -4492 0
-3165 -4049 0
-3166 -4050 0
-3167 -4051 0
-3168 -4052 0
-3165 -4057 0
-3166 -4058 0
-3167 -4059 0
-3168 -4060 0
-3165 -5101 0
-3166 -5102 0
-3167 -5103 0
-3168 -5104 0
-3165 -6129 0
-3166 -6130 0
-3167 -6131 0
-3168 -6132 0
-3169 -4117 0
-3170 -4118 0
-3171 -4119 0
-3172 -4120 0
-3169 -5189 0
-3170 -5190 0
-3171 -5191 0
-3172 -5192 0
-3169 -4685 0
-3170 -4686 0
-3171 -4687 0
-3172 -4688 0
-3169 -4689 0
-3170 -4690 0
-3171 -4691 0
-3172 -4692 0
-3169 -4193 0
-3170 -4194 0
-3171 -4195 0
-3172 -4196 0
-3169 -3173 0
-3170 -3174 0
-3171 -3175 0
-3172 -3176 0
-3169 -3181 0
-3170 -3182 0
-3171 -3183 0
-3172 -3184 0
-3169 -3189 0
-3170 -3190 0
-3171 -3191 0
-3172 -3192 0
-3169 -5773 0
-3170 -5774 0
-3171 -5775 0
-3172 -5776 0
-3169 -5785 0
-3170 -5786 0
-3171 -5787 0
-3172 -5788 0
-3169 -4257 0
-3170 -4258 0
-3171 -4259 0
-3172 -4260 0
-3169 -3245 0
-3170 -3246 0
-3171 -3247 0
-3172 -3248 0
-3169 -5309 0
-3170 -5310 0
-3171 -5311 0
-3172 -5312 0
-3169 -5341 0
-3170 -5342 0
-3171 -5343 0
-3172 -5344 0
-3169 -5873 0
-3170 -5874 0
-3171 -5875 0
-3172 -5876 0
-3169 -4373 0
-3170 -4374 0
-3171 -4375 0
-3172 -4376 0
-3169 -4381 0
-3170 -4382 0
-3171 -4383 0
-3172 -4384 0
-3169 -3877 0
-3170 -3878 0
-3171 -3879 0
-3172 -3880 0
-3169 -3881 0
-3170 -3882 0
-3171 -3883 0
-3172 -3884 0
-3169 -4901 0
-3170 -4902 0
-3171 -4903 0
-3172 -4904 0
-3169 -4905 0
-3170 -4906 0
-3171 -4907 0
-3172 -4908 0
-3169 -4405 0
-3170 -4406 0
-3171 -4407 0
-3172 -4408 0
-3169 -3385 0
-3170 -3386 0
-3171 -3387 0
-3172 -3388 0
-3169 -3405 0
-3170 -3406 0
-3171 -3407 0
-3172 -3408 0
-3169 -3409 0
-3170 -3410 0
-3171 -3411 0
-3172 -3412 0
-3169 -3933 0
-3170 -3934 0
-3171 -3935 0
-3172 -3936 0
-3169 -4449 0
-3170 -4450 0
-3171 -4451 0
-3172 -4452 0
-3169 -4965 0
-3170 -4966 0
-3171 -4967 0
-3172 -4968 0
-3169 -4481 0
-3170 -4482 0
-3171 -4483 0
-3172 -4484 0
-3169 -4013 0
-3170 -4014 0
-3171 -4015 0
-3172 -4016 0
-3169 -4529 0
-3170 -4530 0
-3171 -4531 0
-3172 -4532 0
-3169 -5577 0
-3170 -5578 0
-3171 -5579 0
-3172 -5580 0
-3169 -6085 0
-3170 -6086 0
-3171 -6087 0
-3172 -6088 0
-3169 -4053 0
-3170 -4054 0
-3171 -4055 0
-3172 -4056 0
-3173 -5777 0
-3174 -5778 0
-3175 -5779 0
-3176 -5780 0
-3173 -4905 0
-3174 -4906 0
-3175 -4907 0
-3176 -4908 0
-3173 -5585 0
-3174 -5586 0
-3175 -5587 0
-3176 -5588 0
-3177 -4737 0
-3178 -4738 0
-3179 -4739 0
-3180 -4740 0
-3177 -5001 0
-3178 -5002 0
-3179 -5003 0
-3180 -5004 0
-3177 -4377 0
-3178 -4378 0
-3179 -4379 0
-3180 -4380 0
-3177 -5405 0
-3178 -5406 0
-3179 -5407 0
-3180 -5408 0
-3177 -4909 0
-3178 -4910 0
-3179 -4911 0
-3180 -4912 0
-3177 -5313 0
-3178 -5314 0
-3179 -5315 0
-3180 -5316 0
-3177 -3181 0
-3178 -3182 0
-3179 -3183 0
-3180 -3184 0
-3177 -4081 0
-3178 -4082 0
-3179 -4083 0
-3180 -4084 0
-3181 -5781 0
-3182 -5782 0
-3183 -5783 0
-3184 -5784 0
-3181 -4261 0
-3182 -4262 0
-3183 -4263 0
-3184 -4264 0
-3181 -4533 0
-3182 -4534 0
-3183 -4535 0
-3184 -4536 0
-3181 -3393 0
-3182 -3394 0
-3183 -3395 0
-3184 -3396 0
-3181 -4689 0
-3182 -4690 0
-3183 -4691 0
-3184 -4692 0
-3181 -4057 0
-3182 -4058 0
-3183 -4059 0
-3184 -4060 0
-3181 -5317 0
-3182 -5318 0
-3183 -5319 0
-3184 -5320 0
-3185 -3201 0
-3186 -3202 0
-3187 -3203 0
-3188 -3204 0
-3185 -3233 0
-3186 -3234 0
-3187 -3235 0
-3188 -3236 0
-3185 -4021 0
-3186 -4022 0
-3187 -4023 0
-3188 -4024 0
-3185 -4413 0
-3186 -4414 0
-3187 -4415 0
-3188 -4416 0
-3185 -3409 0
-3186 -3410 0
-3187 -3411 0
-3188 -3412 0
-3185 -4445 0
-3186 -4446 0
-3187 -4447 0
-3188 -4448 0
-3185 -4449 0
-3186 -4450 0
-3187 -4451 0
-3188 -4452 0
-3185 -3453 0
-3186 -3454 0
-3187 -3455 0
-3188 -3456 0
-3189 -5785 0
-3190 -5786 0
-3191 -5787 0
-3192 -5788 0
-3189 -4041 0
-3190 -4042 0
-3191 -4043 0
-3192 -4044 0
-3189 -5337 0
-3190 -5338 0
-3191 -5339 0
-3192 -5340 0
-3193 -4661 0
-3194 -4662 0
-3195 -4663 0
-3196 -4664 0
-3193 -4233 0
-3194 -4234 0
-3195 -4235 0
-3196 -4236 0
-3193 -3253 0
-3194 -3254 0
-3195 -3255 0
-3196 -3256 0
-3193 -5333 0
-3194 -5334 0
-3195 -5335 0
-3196 -5336 0
-3193 -3885 0
-3194 -3886 0
-3195 -3887 0
-3196 -3888 0
-3193 -3889 0
-3194 -3890 0
-3195 -3891 0
-3196 -3892 0
-3193 -5949 0
-3194 -5950 0
-3195 -5951 0
-3196 -5952 0
-3193 -3413 0
-3194 -3414 0
-3195 -3415 0
-3196 -3416 0
-3193 -3425 0
-3194 -3426 0
-3195 -3427 0
-3196 -3428 0
-3193 -4973 0
-3194 -4974 0
-3195 -4975 0
-3196 -4976 0
-3193 -4069 0
-3194 -4070 0
-3195 -4071 0
-3196 -4072 0
-3197 -3201 0
-3198 -3202 0
-3199 -3203 0
-3200 -3204 0
-3197 -4073 0
-3198 -4074 0
-3199 -4075 0
-3200 -4076 0
-3197 -3217 0
-3198 -3218 0
-3199 -3219 0
-3200 -3220 0
-3197 -4769 0
-3198 -4770 0
-3199 -4771 0
-3200 -4772 0
-3197 -4537 0
-3198 -4538 0
-3199 -4539 0
-3200 -4540 0
-3197 -3901 0
-3198 -3902 0
-3199 -3903 0
-3200 -3904 0
-3197 -5817 0
-3198 -5818 0
-3199 -5819 0
-3200 -5820 0
-3197 -4429 0
-3198 -4430 0
-3199 -4431 0
-3200 -4432 0
-3197 -3305 0
-3198 -3306 0
-3199 -3307 0
-3200 -3308 0
-3197 -4977 0
-3198 -4978 0
-3199 -4979 0
-3200 -4980 0
-3201 -4141 0
-3202 -4142 0
-3203 -4143 0
-3204 -4144 0
-3201 -5197 0
-3202 -5198 0
-3203 -5199 0
-3204 -5200 0
-3201 -3221 0
-3202 -3222 0
-3203 -3223 0
-3204 -3224 0
-3201 -4249 0
-3202 -4250 0
-3203 -4251 0
-3204 -4252 0
-3201 -5793 0
-3202 -5794 0
-3203 -5795 0
-3204 -5796 0
-3201 -5821 0
-3202 -5822 0
-3203 -5823 0
-3204 -5824 0
-3201 -3893 0
-3202 -3894 0
-3203 -3895 0
-3204 -3896 0
-3201 -4433 0
-3202 -4434 0
-3203 -4435 0
-3204 -4436 0
-3201 -3421 0
-3202 -3422 0
-3203 -3423 0
-3204 -3424 0
-3201 -4981 0
-3202 -4982 0
-3203 -4983 0
-3204 -4984 0
-3205 -3209 0
-3206 -3210 0
-3207 -3211 0
-3208 -3212 0
-3205 -3469 0
-3206 -3470 0
-3207 -3471 0
-3208 -3472 0
-3205 -3217 0
-3206 -3218 0
-3207 -3219 0
-3208 -3220 0
-3205 -4093 0
-3206 -4094 0
-3207 -4095 0
-3208 -4096 0
-3205 -3425 0
-3206 -3426 0
-3207 -3427 0
-3208 -3428 0
-3205 -3917 0
-3206 -3918 0
-3207 -3919 0
-3208 -3920 0
-3205 -5589 0
-3206 -5590 0
-3207 -5591 0
-3208 -5592 0
-3205 -6093 0
-3206 -6094 0
-3207 -6095 0
-3208 -6096 0
-3205 -4085 0
-3206 -4086 0
-3207 -4087 0
-3208 -4088 0
-3205 -4985 0
-3206 -4986 0
-3207 -4987 0
-3208 -4988 0
-3209 -3633 0
-3210 -3634 0
-3211 -3635 0
-3212 -3636 0
-3209 -4693 0
-3210 -4694 0
-3211 -4695 0
-3212 -4696 0
-3209 -4217 0
-3210 -4218 0
-3211 -4219 0
-3212 -4220 0
-3209 -3213 0
-3210 -3214 0
-3211 -3215 0
-3212 -3216 0
-3209 -4753 0
-3210 -4754 0
-3211 -4755 0
-3212 -4756 0
-3209 -3221 0
-3210 -3222 0
-3211 -3223 0
-3212 -3224 0
-3209 -4757 0
-3210 -4758 0
-3211 -4759 0
-3212 -4760 0
-3209 -3237 0
-3210 -3238 0
-3211 -3239 0
-3212 -3240 0
-3209 -5825 0
-3210 -5826 0
-3211 -5827 0
-3212 -5828 0
-3209 -3313 0
-3210 -3314 0
-3211 -3315 0
-3212 -3316 0
-3209 -5361 0
-3210 -5362 0
-3211 -5363 0
-3212 -5364 0
-3209 -5893 0
-3210 -5894 0
-3211 -5895 0
-3212 -5896 0
-3209 -5421 0
-3210 -5422 0
-3211 -5423 0
-3212 -5424 0
-3209 -3909 0
-3210 -3910 0
-3211 -3911 0
-3212 -3912 0
-3209 -4425 0
-3210 -4426 0
-3211 -4427 0
-3212 -4428 0
-3209 -3921 0
-3210 -3922 0
-3211 -3923 0
-3212 -3924 0
-3209 -3429 0
-3210 -3430 0
-3211 -3431 0
-3212 -3432 0
-3209 -4453 0
-3210 -4454 0
-3211 -4455 0
-3212 -4456 0
-3209 -5493 0
-3210 -5494 0
-3211 -5495 0
-3212 -5496 0
-3209 -4473 0
-3210 -4474 0
-3211 -4475 0
-3212 -4476 0
-3209 -4477 0
-3210 -4478 0
-3211 -4479 0
-3212 -4480 0
-3209 -4485 0
-3210 -4486 0
-3211 -4487 0
-3212 -4488 0
-3209 -5505 0
-3210 -5506 0
-3211 -5507 0
-3212 -5508 0
-3209 -6033 0
-3210 -6034 0
-3211 -6035 0
-3212 -6036 0
-3209 -6057 0
-3210 -6058 0
-3211 -6059 0
-3212 -6060 0
-3209 -4549 0
-3210 -4550 0
-3211 -4551 0
-3212 -4552 0
-3209 -5593 0
-3210 -5594 0
-3211 -5595 0
-3212 -5596 0
-3213 -4481 0
-3214 -4482 0
-3215 -4483 0
-3216 -4484 0
-3213 -3225 0
-3214 -3226 0
-3215 -3227 0
-3216 -3228 0
-3213 -3757 0
-3214 -3758 0
-3215 -3759 0
-3216 -3760 0
-3213 -3637 0
-3214 -3638 0
-3215 -3639 0
-3216 -3640 0
-3213 -4925 0
-3214 -4926 0
-3215 -4927 0
-3216 -4928 0
-3213 -5553 0
-3214 -5554 0
-3215 -5555 0
-3216 -5556 0
-3213 -4429 0
-3214 -4430 0
-3215 -4431 0
-3216 -4432 0
-3213 -3317 0
-3214 -3318 0
-3215 -3319 0
-3216 -3320 0
-3217 -5217 0
-3218 -5218 0
-3219 -5219 0
-3220 -5220 0
-3217 -3221 0
-3218 -3222 0
-3219 -3223 0
-3220 -3224 0
-3217 -3241 0
-3218 -3242 0
-3219 -3243 0
-3220 -3244 0
-3217 -5885 0
-3218 -5886 0
-3219 -5887 0
-3220 -5888 0
-3217 -5889 0
-3218 -5890 0
-3219 -5891 0
-3220 -5892 0
-3217 -4929 0
-3218 -4930 0
-3219 -4931 0
-3220 -4932 0
-3217 -4421 0
-3218 -4422 0
-3219 -4423 0
-3220 -4424 0
-3217 -3913 0
-3218 -3914 0
-3219 -3915 0
-3220 -3916 0
-3217 -3925 0
-3218 -3926 0
-3219 -3927 0
-3220 -3928 0
-3217 -4449 0
-3218 -4450 0
-3219 -4451 0
-3220 -4452 0
-3217 -4989 0
-3218 -4990 0
-3219 -4991 0
-3220 -4992 0
-3217 -4553 0
-3218 -4554 0
-3219 -4555 0
-3220 -4556 0
-3221 -4153 0
-3222 -4154 0
-3223 -4155 0
-3224 -4156 0
-3221 -3645 0
-3222 -3646 0
-3223 -3647 0
-3224 -3648 0
-3221 -4693 0
-3222 -4694 0
-3223 -4695 0
-3224 -4696 0
-3221 -4697 0
-3222 -4698 0
-3223 -4699 0
-3224 -4700 0
-3221 -5221 0
-3222 -5222 0
-3223 -5223 0
-3224 -5224 0
-3221 -4225 0
-3222 -4226 0
-3223 -4227 0
-3224 -4228 0
-3221 -3225 0
-3222 -3226 0
-3223 -3227 0
-3224 -3228 0
-3221 -3233 0
-3222 -3234 0
-3223 -3235 0
-3224 -3236 0
-3221 -5793 0
-3222 -5794 0
-3223 -5795 0
-3224 -5796 0
-3221 -4265 0
-3222 -4266 0
-3223 -4267 0
-3224 -4268 0
-3221 -3245 0
-3222 -3246 0
-3223 -3247 0
-3224 -3248 0
-3221 -5797 0
-3222 -5798 0
-3223 -5799 0
-3224 -5800 0
-3221 -3257 0
-3222 -3258 0
-3223 -3259 0
-3224 -3260 0
-3221 -5353 0
-3222 -5354 0
-3223 -5355 0
-3224 -5356 0
-3221 -5365 0
-3222 -5366 0
-3223 -5367 0
-3224 -5368 0
-3221 -5429 0
-3222 -5430 0
-3223 -5431 0
-3224 -5432 0
-3221 -5941 0
-3222 -5942 0
-3223 -5943 0
-3224 -5944 0
-3221 -4929 0
-3222 -4930 0
-3223 -4931 0
-3224 -4932 0
-3221 -4933 0
-3222 -4934 0
-3223 -4935 0
-3224 -4936 0
-3221 -3917 0
-3222 -3918 0
-3223 -3919 0
-3224 -3920 0
-3221 -4437 0
-3222 -4438 0
-3223 -4439 0
-3224 -4440 0
-3221 -3425 0
-3222 -3426 0
-3223 -3427 0
-3224 -3428 0
-3221 -3929 0
-3222 -3930 0
-3223 -3931 0
-3224 -3932 0
-3221 -3945 0
-3222 -3946 0
-3223 -3947 0
-3224 -3948 0
-3221 -3437 0
-3222 -3438 0
-3223 -3439 0
-3224 -3440 0
-3221 -4065 0
-3222 -4066 0
-3223 -4067 0
-3224 -4068 0
-3221 -4457 0
-3222 -4458 0
-3223 -4459 0
-3224 -4460 0
-3221 -4993 0
-3222 -4994 0
-3223 -4995 0
-3224 -4996 0
-3221 -4489 0
-3222 -4490 0
-3223 -4491 0
-3224 -4492 0
-3221 -3473 0
-3222 -3474 0
-3223 -3475 0
-3224 -3476 0
-3221 -4493 0
-3222 -4494 0
-3223 -4495 0
-3224 -4496 0
-3221 -5497 0
-3222 -5498 0
-3223 -5499 0
-3224 -5500 0
-3221 -5557 0
-3222 -5558 0
-3223 -5559 0
-3224 -5560 0
-3221 -4557 0
-3222 -4558 0
-3223 -4559 0
-3224 -4560 0
-3221 -4085 0
-3222 -4086 0
-3223 -4087 0
-3224 -4088 0
-3225 -4709 0
-3226 -4710 0
-3227 -4711 0
-3228 -4712 0
-3225 -4757 0
-3226 -4758 0
-3227 -4759 0
-3228 -4760 0
-3225 -5561 0
-3226 -5562 0
-3227 -5563 0
-3228 -5564 0
-3225 -4933 0
-3226 -4934 0
-3227 -4935 0
-3228 -4936 0
-3225 -5945 0
-3226 -5946 0
-3227 -5947 0
-3228 -5948 0
-3225 -3921 0
-3226 -3922 0
-3227 -3923 0
-3228 -3924 0
-3225 -4441 0
-3226 -4442 0
-3227 -4443 0
-3228 -4444 0
-3225 -4069 0
-3226 -4070 0
-3227 -4071 0
-3228 -4072 0
-3229 -4233 0
-3230 -4234 0
-3231 -4235 0
-3232 -4236 0
-3229 -5917 0
-3230 -5918 0
-3231 -5919 0
-3232 -5920 0
-3229 -5433 0
-3230 -5434 0
-3231 -5435 0
-3232 -5436 0
-3229 -4425 0
-3230 -4426 0
-3231 -4427 0
-3232 -4428 0
-3229 -4941 0
-3230 -4942 0
-3231 -4943 0
-3232 -4944 0
-3229 -4561 0
-3230 -4562 0
-3231 -4563 0
-3232 -4564 0
-3229 -4053 0
-3230 -4054 0
-3231 -4055 0
-3232 -4056 0
-3233 -4269 0
-3234 -4270 0
-3235 -4271 0
-3236 -4272 0
-3233 -3773 0
-3234 -3774 0
-3235 -3775 0
-3236 -3776 0
-3233 -3925 0
-3234 -3926 0
-3235 -3927 0
-3236 -3928 0
-3233 -4433 0
-3234 -4434 0
-3235 -4435 0
-3236 -4436 0
-3233 -4697 0
-3234 -4698 0
-3235 -4699 0
-3236 -4700 0
-3237 -3245 0
-3238 -3246 0
-3239 -3247 0
-3240 -3248 0
-3237 -6061 0
-3238 -6062 0
-3239 -6063 0
-3240 -6064 0
-3237 -4941 0
-3238 -4942 0
-3239 -4943 0
-3240 -4944 0
-3237 -5449 0
-3238 -5450 0
-3239 -5451 0
-3240 -5452 0
-3237 -5601 0
-3238 -5602 0
-3239 -5603 0
-3240 -5604 0
-3237 -4073 0
-3238 -4074 0
-3239 -4075 0
-3240 -4076 0
-3237 -5357 0
-3238 -5358 0
-3239 -5359 0
-3240 -5360 0
-3241 -3489 0
-3242 -3490 0
-3243 -3491 0
-3244 -3492 0
-3241 -3245 0
-3242 -3246 0
-3243 -3247 0
-3244 -3248 0
-3241 -6093 0
-3242 -6094 0
-3243 -6095 0
-3244 -6096 0
-3241 -4945 0
-3242 -4946 0
-3243 -4947 0
-3244 -4948 0
-3241 -4949 0
-3242 -4950 0
-3243 -4951 0
-3244 -4952 0
-3241 -5969 0
-3242 -5970 0
-3243 -5971 0
-3244 -5972 0
-3241 -4077 0
-3242 -4078 0
-3243 -4079 0
-3244 -4080 0
-3245 -5797 0
-3246 -5798 0
-3247 -5799 0
-3248 -5800 0
-3245 -4949 0
-3246 -4950 0
-3247 -4951 0
-3248 -4952 0
-3245 -4953 0
-3246 -4954 0
-3247 -4955 0
-3248 -4956 0
-3245 -3933 0
-3246 -3934 0
-3247 -3935 0
-3248 -3936 0
-3245 -5361 0
-3246 -5362 0
-3247 -5363 0
-3248 -5364 0
-3245 -4473 0
-3246 -4474 0
-3247 -4475 0
-3248 -4476 0
-3249 -3329 0
-3250 -3330 0
-3251 -3331 0
-3252 -3332 0
-3249 -4997 0
-3250 -4998 0
-3251 -4999 0
-3252 -5000 0
-3249 -4253 0
-3250 -4254 0
-3251 -4255 0
-3252 -4256 0
-3253 -4493 0
-3254 -4494 0
-3255 -4495 0
-3256 -4496 0
-3253 -4261 0
-3254 -4262 0
-3255 -4263 0
-3256 -4264 0
-3253 -4265 0
-3254 -4266 0
-3255 -4267 0
-3256 -4268 0
-3253 -3405 0
-3254 -3406 0
-3255 -3407 0
-3256 -3408 0
-3253 -4693 0
-3254 -4694 0
-3255 -4695 0
-3256 -4696 0
-3253 -4185 0
-3254 -4186 0
-3255 -4187 0
-3256 -4188 0
-3253 -3305 0
-3254 -3306 0
-3255 -3307 0
-3256 -3308 0
-3257 -3517 0
-3258 -3518 0
-3259 -3519 0
-3260 -3520 0
-3257 -3945 0
-3258 -3946 0
-3259 -3947 0
-3260 -3948 0
-3257 -4981 0
-3258 -4982 0
-3259 -4983 0
-3260 -4984 0
-3257 -5373 0
-3258 -5374 0
-3259 -5375 0
-3260 -5376 0
-3261 -4121 0
-3262 -4122 0
-3263 -4123 0
-3264 -4124 0
-3261 -5017 0
-3262 -5018 0
-3263 -5019 0
-3264 -5020 0
-3261 -4517 0
-3262 -4518 0
-3263 -4519 0
-3264 -4520 0
-3261 -4781 0
-3262 -4782 0
-3263 -4783 0
-3264 -4784 0
-3261 -3293 0
-3262 -3294 0
-3263 -3295 0
-3264 -3296 0
-3261 -4289 0
-3262 -4290 0
-3263 -4291 0
-3264 -4292 0
-3261 -4313 0
-3262 -4314 0
-3263 -4315 0
-3264 -4316 0
-3261 -4701 0
-3262 -4702 0
-3263 -4703 0
-3264 -4704 0
-3261 -4705 0
-3262 -4706 0
-3263 -4707 0
-3264 -4708 0
-3261 -3961 0
-3262 -3962 0
-3263 -3963 0
-3264 -3964 0
-3265 -3969 0
-3266 -3970 0
-3267 -3971 0
-3268 -3972 0
-3265 -4513 0
-3266 -4514 0
-3267 -4515 0
-3268 -4516 0
-3265 -3285 0
-3266 -3286 0
-3267 -3287 0
-3268 -3288 0
-3265 -3297 0
-3266 -3298 0
-3267 -3299 0
-3268 -3300 0
-3269 -5377 0
-3270 -5378 0
-3271 -5379 0
-3272 -5380 0
-3269 -3489 0
-3270 -3490 0
-3271 -3491 0
-3272 -3492 0
-3269 -5169 0
-3270 -5170 0
-3271 -5171 0
-3272 -5172 0
-3269 -4789 0
-3270 -4790 0
-3271 -4791 0
-3272 -4792 0
-3269 -4289 0
-3270 -4290 0
-3271 -4291 0
-3272 -4292 0
-3269 -4177 0
-3270 -4178 0
-3271 -4179 0
-3272 -4180 0
-3269 -4561 0
-3270 -4562 0
-3271 -4563 0
-3272 -4564 0
-3269 -5745 0
-3270 -5746 0
-3271 -5747 0
-3272 -5748 0
-3269 -4973 0
-3270 -4974 0
-3271 -4975 0
-3272 -4976 0
-3273 -4237 0
-3274 -4238 0
-3275 -4239 0
-3276 -4240 0
-3273 -4373 0
-3274 -4374 0
-3275 -4375 0
-3276 -4376 0
-3273 -4517 0
-3274 -4518 0
-3275 -4519 0
-3276 -4520 0
-3273 -4533 0
-3274 -4534 0
-3275 -4535 0
-3276 -4536 0
-3273 -4029 0
-3274 -4030 0
-3275 -4031 0
-3276 -4032 0
-3273 -3277 0
-3274 -3278 0
-3275 -3279 0
-3276 -3280 0
-3277 -5385 0
-3278 -5386 0
-3279 -5387 0
-3280 -5388 0
-3277 -5901 0
-3278 -5902 0
-3279 -5903 0
-3280 -5904 0
-3277 -4245 0
-3278 -4246 0
-3279 -4247 0
-3280 -4248 0
-3277 -4525 0
-3278 -4526 0
-3279 -4527 0
-3280 -4528 0
-3277 -4041 0
-3278 -4042 0
-3279 -4043 0
-3280 -4044 0
-3281 -3817 0
-3282 -3818 0
-3283 -3819 0
-3284 -3820 0
-3281 -4389 0
-3282 -4390 0
-3283 -4391 0
-3284 -4392 0
-3281 -4517 0
-3282 -4518 0
-3283 -4519 0
-3284 -4520 0
-3281 -5037 0
-3282 -5038 0
-3283 -5039 0
-3284 -5040 0
-3281 -4537 0
-3282 -4538 0
-3283 -4539 0
-3284 -4540 0
-3281 -3285 0
-3282 -3286 0
-3283 -3287 0
-3284 -3288 0
-3281 -4317 0
-3282 -4318 0
-3283 -4319 0
-3284 -4320 0
-3281 -5621 0
-3282 -5622 0
-3283 -5623 0
-3284 -5624 0
-3285 -5385 0
-3286 -5386 0
-3287 -5387 0
-3288 -5388 0
-3285 -5393 0
-3286 -5394 0
-3287 -5395 0
-3288 -5396 0
-3285 -4505 0
-3286 -4506 0
-3287 -4507 0
-3288 -4508 0
-3285 -3997 0
-3286 -3998 0
-3287 -3999 0
-3288 -4000 0
-3285 -3501 0
-3286 -3502 0
-3287 -3503 0
-3288 -3504 0
-3285 -4525 0
-3286 -4526 0
-3287 -4527 0
-3288 -4528 0
-3285 -5809 0
-3286 -5810 0
-3287 -5811 0
-3288 -5812 0
-3285 -4541 0
-3286 -4542 0
-3287 -4543 0
-3288 -4544 0
-3285 -6125 0
-3286 -6126 0
-3287 -6127 0
-3288 -6128 0
-3289 -4517 0
-3290 -4518 0
-3291 -4519 0
-3292 -4520 0
-3289 -4397 0
-3290 -4398 0
-3291 -4399 0
-3292 -4400 0
-3289 -5813 0
-3290 -5814 0
-3291 -5815 0
-3292 -5816 0
-3289 -6069 0
-3290 -6070 0
-3291 -6071 0
-3292 -6072 0
-3289 -3777 0
-3290 -3778 0
-3291 -3779 0
-3292 -3780 0
-3289 -5629 0
-3290 -5630 0
-3291 -5631 0
-3292 -5632 0
-3293 -4181 0
-3294 -4182 0
-3295 -4183 0
-3296 -4184 0
-3293 -4717 0
-3294 -4718 0
-3295 -4719 0
-3296 -4720 0
-3293 -3721 0
-3294 -3722 0
-3295 -3723 0
-3296 -3724 0
-3293 -5821 0
-3294 -5822 0
-3295 -5823 0
-3296 -5824 0
-3293 -4309 0
-3294 -4310 0
-3295 -4311 0
-3296 -4312 0
-3293 -3801 0
-3294 -3802 0
-3295 -3803 0
-3296 -3804 0
-3293 -4353 0
-3294 -4354 0
-3295 -4355 0
-3296 -4356 0
-3293 -3337 0
-3294 -3338 0
-3295 -3339 0
-3296 -3340 0
-3293 -3857 0
-3294 -3858 0
-3295 -3859 0
-3296 -3860 0
-3293 -3961 0
-3294 -3962 0
-3295 -3963 0
-3296 -3964 0
-3293 -4013 0
-3294 -4014 0
-3295 -4015 0
-3296 -4016 0
-3293 -3505 0
-3294 -3506 0
-3295 -3507 0
-3296 -3508 0
-3293 -4545 0
-3294 -4546 0
-3295 -4547 0
-3296 -4548 0
-3293 -4557 0
-3294 -4558 0
-3295 -4559 0
-3296 -4560 0
-3297 -3665 0
-3298 -3666 0
-3299 -3667 0
-3300 -3668 0
-3297 -4225 0
-3298 -4226 0
-3299 -4227 0
-3300 -4228 0
-3297 -3785 0
-3298 -3786 0
-3299 -3787 0
-3300 -3788 0
-3297 -3793 0
-3298 -3794 0
-3299 -3795 0
-3300 -3796 0
-3297 -3357 0
-3298 -3358 0
-3299 -3359 0
-3300 -3360 0
-3297 -3969 0
-3298 -3970 0
-3299 -3971 0
-3300 -3972 0
-3297 -4553 0
-3298 -4554 0
-3299 -4555 0
-3300 -4556 0
-3297 -5065 0
-3298 -5066 0
-3299 -5067 0
-3300 -5068 0
-3297 -4573 0
-3298 -4574 0
-3299 -4575 0
-3300 -4576 0
-3297 -5597 0
-3298 -5598 0
-3299 -5599 0
-3300 -5600 0
-3301 -4233 0
-3302 -4234 0
-3303 -4235 0
-3304 -4236 0
-3301 -5009 0
-3302 -5010 0
-3303 -5011 0
-3304 -5012 0
-3301 -3361 0
-3302 -3362 0
-3303 -3363 0
-3304 -3364 0
-3301 -6041 0
-3302 -6042 0
-3303 -6043 0
-3304 -6044 0
-3301 -4817 0
-3302 -4818 0
-3303 -4819 0
-3304 -4820 0
-3301 -4189 0
-3302 -4190 0
-3303 -4191 0
-3304 -4192 0
-3301 -3305 0
-3302 -3306 0
-3303 -3307 0
-3304 -3308 0
-3305 -5197 0
-3306 -5198 0
-3307 -5199 0
-3308 -5200 0
-3305 -4601 0
-3306 -4602 0
-3307 -4603 0
-3308 -4604 0
-3305 -4241 0
-3306 -4242 0
-3307 -4243 0
-3308 -4244 0
-3305 -5265 0
-3306 -5266 0
-3307 -5267 0
-3308 -5268 0
-3305 -4825 0
-3306 -4826 0
-3307 -4827 0
-3308 -4828 0
-3305 -4321 0
-3306 -4322 0
-3307 -4323 0
-3308 -4324 0
-3305 -3369 0
-3306 -3370 0
-3307 -3371 0
-3308 -3372 0
-3305 -3985 0
-3306 -3986 0
-3307 -3987 0
-3308 -3988 0
-3305 -4033 0
-3306 -4034 0
-3307 -4035 0
-3308 -4036 0
-3305 -4577 0
-3306 -4578 0
-3307 -4579 0
-3308 -4580 0
-3309 -3341 0
-3310 -3342 0
-3311 -3343 0
-3312 -3344 0
-3309 -4537 0
-3310 -4538 0
-3311 -4539 0
-3312 -4540 0
-3309 -4165 0
-3310 -4166 0
-3311 -4167 0
-3312 -4168 0
-3309 -4421 0
-3310 -4422 0
-3311 -4423 0
-3312 -4424 0
-3309 -4049 0
-3310 -4050 0
-3311 -4051 0
-3312 -4052 0
-3309 -5069 0
-3310 -5070 0
-3311 -5071 0
-3312 -5072 0
-3309 -3453 0
-3310 -3454 0
-3311 -3455 0
-3312 -3456 0
-3309 -4577 0
-3310 -4578 0
-3311 -4579 0
-3312 -4580 0
-3309 -3313 0
-3310 -3314 0
-3311 -3315 0
-3312 -3316 0
-3309 -4833 0
-3310 -4834 0
-3311 -4835 0
-3312 -4836 0
-3313 -3317 0
-3314 -3318 0
-3315 -3319 0
-3316 -3320 0
-3313 -5401 0
-3314 -5402 0
-3315 -5403 0
-3316 -5404 0
-3313 -3397 0
-3314 -3398 0
-3315 -3399 0
-3316 -3400 0
-3313 -4429 0
-3314 -4430 0
-3315 -4431 0
-3316 -4432 0
-3313 -3993 0
-3314 -3994 0
-3315 -3995 0
-3316 -3996 0
-3313 -5025 0
-3314 -5026 0
-3315 -5027 0
-3316 -5028 0
-3313 -4541 0
-3314 -4542 0
-3315 -4543 0
-3316 -4544 0
-3313 -5581 0
-3314 -5582 0
-3315 -5583 0
-3316 -5584 0
-3313 -4077 0
-3314 -4078 0
-3315 -4079 0
-3316 -4080 0
-3313 -4601 0
-3314 -4602 0
-3315 -4603 0
-3316 -4604 0
-3317 -5825 0
-3318 -5826 0
-3319 -5827 0
-3320 -5828 0
-3317 -4177 0
-3318 -4178 0
-3319 -4179 0
-3320 -4180 0
-3317 -4433 0
-3318 -4434 0
-3319 -4435 0
-3320 -4436 0
-3317 -4057 0
-3318 -4058 0
-3319 -4059 0
-3320 -4060 0
-3317 -4833 0
-3318 -4834 0
-3319 -4835 0
-3320 -4836 0
-3321 -4277 0
-3322 -4278 0
-3323 -4279 0
-3324 -4280 0
-3321 -3525 0
-3322 -3526 0
-3323 -3527 0
-3324 -3528 0
-3321 -3813 0
-3322 -3814 0
-3323 -3815 0
-3324 -3816 0
-3321 -4589 0
-3322 -4590 0
-3323 -4591 0
-3324 -4592 0
-3325 -3329 0
-3326 -3330 0
-3327 -3331 0
-3328 -3332 0
-3325 -3361 0
-3326 -3362 0
-3327 -3363 0
-3328 -3364 0
-3325 -5041 0
-3326 -5042 0
-3327 -5043 0
-3328 -5044 0
-3325 -5293 0
-3326 -5294 0
-3327 -5295 0
-3328 -5296 0
-3325 -5433 0
-3326 -5434 0
-3327 -5435 0
-3328 -5436 0
-3325 -5961 0
-3326 -5962 0
-3327 -5963 0
-3328 -5964 0
-3329 -5637 0
-3330 -5638 0
-3331 -5639 0
-3332 -5640 0
-3329 -6153 0
-3330 -6154 0
-3331 -6155 0
-3332 -6156 0
-3329 -5617 0
-3330 -5618 0
-3331 -5619 0
-3332 -5620 0
-3329 -4221 0
-3330 -4222 0
-3331 -4223 0
-3332 -4224 0
-3329 -4237 0
-3330 -4238 0
-3331 -4239 0
-3332 -4240 0
-3329 -5301 0
-3330 -5302 0
-3331 -5303 0
-3332 -5304 0
-3329 -4293 0
-3330 -4294 0
-3331 -4295 0
-3332 -4296 0
-3329 -5837 0
-3330 -5838 0
-3331 -5839 0
-3332 -5840 0
-3329 -5845 0
-3330 -5846 0
-3331 -5847 0
-3332 -5848 0
-3329 -4841 0
-3330 -4842 0
-3331 -4843 0
-3332 -4844 0
-3329 -4845 0
-3330 -4846 0
-3331 -4847 0
-3332 -4848 0
-3329 -3333 0
-3330 -3334 0
-3331 -3335 0
-3332 -3336 0
-3329 -3341 0
-3330 -3342 0
-3331 -3343 0
-3332 -3344 0
-3329 -4381 0
-3330 -4382 0
-3331 -4383 0
-3332 -4384 0
-3329 -3369 0
-3330 -3370 0
-3331 -3371 0
-3332 -3372 0
-3329 -3913 0
-3330 -3914 0
-3331 -3915 0
-3332 -3916 0
-3329 -4425 0
-3330 -4426 0
-3331 -4427 0
-3332 -4428 0
-3329 -3421 0
-3330 -3422 0
-3331 -3423 0
-3332 -3424 0
-3329 -4465 0
-3330 -4466 0
-3331 -4467 0
-3332 -4468 0
-3329 -3473 0
-3330 -3474 0
-3331 -3475 0
-3332 -3476 0
-3329 -5037 0
-3330 -5038 0
-3331 -5039 0
-3332 -5040 0
-3329 -3541 0
-3330 -3542 0
-3331 -3543 0
-3332 -3544 0
-3329 -6105 0
-3330 -6106 0
-3331 -6107 0
-3332 -6108 0
-3329 -5105 0
-3330 -5106 0
-3331 -5107 0
-3332 -5108 0
-3329 -4597 0
-3330 -4598 0
-3331 -4599 0
-3332 -4600 0
-3333 -5673 0
-3334 -5674 0
-3335 -5675 0
-3336 -5676 0
-3333 -5841 0
-3334 -5842 0
-3335 -5843 0
-3336 -5844 0
-3333 -3337 0
-3334 -3338 0
-3335 -3339 0
-3336 -3340 0
-3333 -5909 0
-3334 -5910 0
-3335 -5911 0
-3336 -5912 0
-3333 -5413 0
-3334 -5414 0
-3335 -5415 0
-3336 -5416 0
-3333 -3373 0
-3334 -3374 0
-3335 -3375 0
-3336 -3376 0
-3333 -4397 0
-3334 -4398 0
-3335 -4399 0
-3336 -4400 0
-3333 -5441 0
-3334 -5442 0
-3335 -5443 0
-3336 -5444 0
-3333 -3917 0
-3334 -3918 0
-3335 -3919 0
-3336 -3920 0
-3333 -4429 0
-3334 -4430 0
-3335 -4431 0
-3336 -4432 0
-3333 -5965 0
-3334 -5966 0
-3335 -5967 0
-3336 -5968 0
-3333 -5037 0
-3334 -5038 0
-3335 -5039 0
-3336 -5040 0
-3333 -4549 0
-3334 -4550 0
-3335 -4551 0
-3336 -4552 0
-3333 -4561 0
-3334 -4562 0
-3335 -4563 0
-3336 -4564 0
-3333 -4077 0
-3334 -4078 0
-3335 -4079 0
-3336 -4080 0
-3333 -5621 0
-3334 -5622 0
-3335 -5623 0
-3336 -5624 0
-3333 -4601 0
-3334 -4602 0
-3335 -4603 0
-3336 -4604 0
-3337 -3673 0
-3338 -3674 0
-3339 -3675 0
-3340 -3676 0
-3337 -4225 0
-3338 -4226 0
-3339 -4227 0
-3340 -4228 0
-3337 -5833 0
-3338 -5834 0
-3339 -5835 0
-3340 -5836 0
-3337 -4385 0
-3338 -4386 0
-3339 -4387 0
-3340 -4388 0
-3337 -3921 0
-3338 -3922 0
-3339 -3923 0
-3340 -3924 0
-3337 -4433 0
-3338 -4434 0
-3339 -4435 0
-3340 -4436 0
-3337 -4469 0
-3338 -4470 0
-3339 -4471 0
-3340 -4472 0
-3337 -3449 0
-3338 -3450 0
-3339 -3451 0
-3340 -3452 0
-3337 -4013 0
-3338 -4014 0
-3339 -4015 0
-3340 -4016 0
-3337 -3565 0
-3338 -3566 0
-3339 -3567 0
-3340 -3568 0
-3341 -4233 0
-3342 -4234 0
-3343 -4235 0
-3344 -4236 0
-3341 -4621 0
-3342 -4622 0
-3343 -4623 0
-3344 -4624 0
-3341 -4245 0
-3342 -4246 0
-3343 -4247 0
-3344 -4248 0
-3341 -4205 0
-3342 -4206 0
-3343 -4207 0
-3344 -4208 0
-3341 -3377 0
-3342 -3378 0
-3343 -3379 0
-3344 -3380 0
-3341 -4553 0
-3342 -4554 0
-3343 -4555 0
-3344 -4556 0
-3341 -4437 0
-3342 -4438 0
-3343 -4439 0
-3344 -4440 0
-3341 -5849 0
-3342 -5850 0
-3343 -5851 0
-3344 -5852 0
-3341 -3549 0
-3342 -3550 0
-3343 -3551 0
-3344 -3552 0
-3341 -4193 0
-3342 -4194 0
-3343 -4195 0
-3344 -4196 0
-3345 -3853 0
-3346 -3854 0
-3347 -3855 0
-3348 -3856 0
-3345 -3353 0
-3346 -3354 0
-3347 -3355 0
-3348 -3356 0
-3345 -5041 0
-3346 -5042 0
-3347 -5043 0
-3348 -5044 0
-3345 -3381 0
-3346 -3382 0
-3347 -3383 0
-3348 -3384 0
-3345 -5445 0
-3346 -5446 0
-3347 -5447 0
-3348 -5448 0
-3345 -4593 0
-3346 -4594 0
-3347 -4595 0
-3348 -4596 0
-3345 -5109 0
-3346 -5110 0
-3347 -5111 0
-3348 -5112 0
-3349 -3845 0
-3350 -3846 0
-3351 -3847 0
-3352 -3848 0
-3349 -4573 0
-3350 -4574 0
-3351 -4575 0
-3352 -4576 0
-3353 -5637 0
-3354 -5638 0
-3355 -5639 0
-3356 -5640 0
-3353 -5645 0
-3354 -5646 0
-3355 -5647 0
-3356 -5648 0
-3353 -6153 0
-3354 -6154 0
-3355 -6155 0
-3356 -6156 0
-3353 -5845 0
-3354 -5846 0
-3355 -5847 0
-3356 -5848 0
-3353 -5873 0
-3354 -5874 0
-3355 -5875 0
-3356 -5876 0
-3353 -3849 0
-3354 -3850 0
-3355 -3851 0
-3356 -3852 0
-3353 -3861 0
-3354 -3862 0
-3355 -3863 0
-3356 -3864 0
-3353 -3357 0
-3354 -3358 0
-3355 -3359 0
-3356 -3360 0
-3353 -3481 0
-3354 -3482 0
-3355 -3483 0
-3356 -3484 0
-3353 -6057 0
-3354 -6058 0
-3355 -6059 0
-3356 -6060 0
-3353 -4017 0
-3354 -4018 0
-3355 -4019 0
-3356 -4020 0
-3353 -4029 0
-3354 -4030 0
-3355 -4031 0
-3356 -4032 0
-3353 -6105 0
-3354 -6106 0
-3355 -6107 0
-3356 -6108 0
-3353 -4597 0
-3354 -4598 0
-3355 -4599 0
-3356 -4600 0
-3357 -4729 0
-3358 -4730 0
-3359 -4731 0
-3360 -4732 0
-3357 -3853 0
-3358 -3854 0
-3359 -3855 0
-3360 -3856 0
-3357 -3865 0
-3358 -3866 0
-3359 -3867 0
-3360 -3868 0
-3357 -5421 0
-3358 -5422 0
-3359 -5423 0
-3360 -5424 0
-3357 -3393 0
-3358 -3394 0
-3359 -3395 0
-3360 -3396 0
-3357 -5969 0
-3358 -5970 0
-3359 -5971 0
-3360 -5972 0
-3357 -4085 0
-3358 -4086 0
-3359 -4087 0
-3360 -4088 0
-3357 -4601 0
-3358 -4602 0
-3359 -4603 0
-3360 -4604 0
-3361 -4625 0
-3362 -4626 0
-3363 -4627 0
-3364 -4628 0
-3361 -4209 0
-3362 -4210 0
-3363 -4211 0
-3364 -4212 0
-3361 -4733 0
-3362 -4734 0
-3363 -4735 0
-3364 -4736 0
-3361 -4265 0
-3362 -4266 0
-3363 -4267 0
-3364 -4268 0
-3361 -5309 0
-3362 -5310 0
-3363 -5311 0
-3364 -5312 0
-3361 -3369 0
-3362 -3370 0
-3363 -3371 0
-3364 -3372 0
-3361 -5425 0
-3362 -5426 0
-3363 -5427 0
-3364 -5428 0
-3361 -3429 0
-3362 -3430 0
-3363 -3431 0
-3364 -3432 0
-3361 -5045 0
-3362 -5046 0
-3363 -5047 0
-3364 -5048 0
-3361 -4037 0
-3362 -4038 0
-3363 -4039 0
-3364 -4040 0
-3361 -5589 0
-3362 -5590 0
-3363 -5591 0
-3364 -5592 0
-3361 -4569 0
-3362 -4570 0
-3363 -4571 0
-3364 -4572 0
-3361 -5609 0
-3362 -5610 0
-3363 -5611 0
-3364 -5612 0
-3365 -3489 0
-3366 -3490 0
-3367 -3491 0
-3368 -3492 0
-3365 -3369 0
-3366 -3370 0
-3367 -3371 0
-3368 -3372 0
-3365 -4257 0
-3366 -4258 0
-3367 -4259 0
-3368 -4260 0
-3365 -6141 0
-3366 -6142 0
-3367 -6143 0
-3368 -6144 0
-3365 -4409 0
-3366 -4410 0
-3367 -4411 0
-3368 -4412 0
-3365 -5049 0
-3366 -5050 0
-3367 -5051 0
-3368 -5052 0
-3365 -5061 0
-3366 -5062 0
-3367 -5063 0
-3368 -5064 0
-3365 -3401 0
-3366 -3402 0
-3367 -3403 0
-3368 -3404 0
-3365 -5313 0
-3366 -5314 0
-3367 -5315 0
-3368 -5316 0
-3365 -6109 0
-3366 -6110 0
-3367 -6111 0
-3368 -6112 0
-3365 -5877 0
-3366 -5878 0
-3367 -5879 0
-3368 -5880 0
-3369 -4609 0
-3370 -4610 0
-3371 -4611 0
-3372 -4612 0
-3369 -4581 0
-3370 -4582 0
-3371 -4583 0
-3372 -4584 0
-3369 -6157 0
-3370 -6158 0
-3371 -6159 0
-3372 -6160 0
-3369 -5653 0
-3370 -5654 0
-3371 -5655 0
-3372 -5656 0
-3369 -4633 0
-3370 -4634 0
-3371 -4635 0
-3372 -4636 0
-3369 -6113 0
-3370 -6114 0
-3371 -6115 0
-3372 -6116 0
-3369 -4089 0
-3370 -4090 0
-3371 -4091 0
-3372 -4092 0
-3369 -5241 0
-3370 -5242 0
-3371 -5243 0
-3372 -5244 0
-3369 -4733 0
-3370 -4734 0
-3371 -4735 0
-3372 -4736 0
-3369 -4737 0
-3370 -4738 0
-3371 -4739 0
-3372 -4740 0
-3369 -4249 0
-3370 -4250 0
-3371 -4251 0
-3372 -4252 0
-3369 -4269 0
-3370 -4270 0
-3371 -4271 0
-3372 -4272 0
-3369 -5317 0
-3370 -5318 0
-3371 -5319 0
-3372 -5320 0
-3369 -5837 0
-3370 -5838 0
-3371 -5839 0
-3372 -5840 0
-3369 -4305 0
-3370 -4306 0
-3371 -4307 0
-3372 -4308 0
-3369 -5853 0
-3370 -5854 0
-3371 -5855 0
-3372 -5856 0
-3369 -5861 0
-3370 -5862 0
-3371 -5863 0
-3372 -5864 0
-3369 -3373 0
-3370 -3374 0
-3371 -3375 0
-3372 -3376 0
-3369 -3377 0
-3370 -3378 0
-3371 -3379 0
-3372 -3380 0
-3369 -5433 0
-3370 -5434 0
-3371 -5435 0
-3372 -5436 0
-3369 -4413 0
-3370 -4414 0
-3371 -4415 0
-3372 -4416 0
-3369 -3405 0
-3370 -3406 0
-3371 -3407 0
-3372 -3408 0
-3369 -5461 0
-3370 -5462 0
-3371 -5463 0
-3372 -5464 0
-3369 -3437 0
-3370 -3438 0
-3371 -3439 0
-3372 -3440 0
-3369 -4477 0
-3370 -4478 0
-3371 -4479 0
-3372 -4480 0
-3369 -5049 0
-3370 -5050 0
-3371 -5051 0
-3372 -5052 0
-3369 -5053 0
-3370 -5054 0
-3371 -5055 0
-3372 -5056 0
-3369 -4033 0
-3370 -4034 0
-3371 -4035 0
-3372 -4036 0
-3369 -4045 0
-3370 -4046 0
-3371 -4047 0
-3372 -4048 0
-3369 -5065 0
-3370 -5066 0
-3371 -5067 0
-3372 -5068 0
-3369 -3553 0
-3370 -3554 0
-3371 -3555 0
-3372 -3556 0
-3369 -3557 0
-3370 -3558 0
-3371 -3559 0
-3372 -3560 0
-3369 -4585 0
-3370 -4586 0
-3371 -4587 0
-3372 -4588 0
-3369 -3573 0
-3370 -3574 0
-3371 -3575 0
-3372 -3576 0
-3369 -5117 0
-3370 -5118 0
-3371 -5119 0
-3372 -5120 0
-3373 -4613 0
-3374 -4614 0
-3375 -4615 0
-3376 -4616 0
-3373 -5321 0
-3374 -5322 0
-3375 -5323 0
-3376 -5324 0
-3373 -5841 0
-3374 -5842 0
-3375 -5843 0
-3376 -5844 0
-3373 -5857 0
-3374 -5858 0
-3375 -5859 0
-3376 -5860 0
-3373 -5905 0
-3374 -5906 0
-3375 -5907 0
-3376 -5908 0
-3373 -5437 0
-3374 -5438 0
-3375 -5439 0
-3376 -5440 0
-3373 -3933 0
-3374 -3934 0
-3375 -3935 0
-3376 -3936 0
-3373 -4449 0
-3374 -4450 0
-3375 -4451 0
-3376 -4452 0
-3373 -4481 0
-3374 -4482 0
-3375 -4483 0
-3376 -4484 0
-3373 -5053 0
-3374 -5054 0
-3375 -5055 0
-3376 -5056 0
-3373 -4037 0
-3374 -4038 0
-3375 -4039 0
-3376 -4040 0
-3373 -4605 0
-3374 -4606 0
-3375 -4607 0
-3376 -4608 0
-3377 -4737 0
-3378 -4738 0
-3379 -4739 0
-3380 -4740 0
-3377 -4257 0
-3378 -4258 0
-3379 -4259 0
-3380 -4260 0
-3377 -5989 0
-3378 -5990 0
-3379 -5991 0
-3380 -5992 0
-3377 -5329 0
-3378 -5330 0
-3379 -5331 0
-3380 -5332 0
-3381 -3877 0
-3382 -3878 0
-3383 -3879 0
-3384 -3880 0
-3381 -3385 0
-3382 -3386 0
-3383 -3387 0
-3384 -3388 0
-3381 -3421 0
-3382 -3422 0
-3383 -3423 0
-3384 -3424 0
-3381 -4053 0
-3382 -4054 0
-3383 -4055 0
-3384 -4056 0
-3381 -4601 0
-3382 -4602 0
-3383 -4603 0
-3384 -4604 0
-3385 -5649 0
-3386 -5650 0
-3387 -5651 0
-3388 -5652 0
-3385 -5657 0
-3386 -5658 0
-3387 -5659 0
-3388 -5660 0
-3385 -3393 0
-3386 -3394 0
-3387 -3395 0
-3388 -3396 0
-3385 -4217 0
-3386 -4218 0
-3387 -4219 0
-3388 -4220 0
-3389 -5661 0
-3390 -5662 0
-3391 -5663 0
-3392 -5664 0
-3389 -5057 0
-3390 -5058 0
-3391 -5059 0
-3392 -5060 0
-3389 -5061 0
-3390 -5062 0
-3391 -5063 0
-3392 -5064 0
-3389 -6109 0
-3390 -6110 0
-3391 -6111 0
-3392 -6112 0
-3389 -4221 0
-3390 -4222 0
-3391 -4223 0
-3392 -4224 0
-3393 -4613 0
-3394 -4614 0
-3395 -4615 0
-3396 -4616 0
-3393 -4225 0
-3394 -4226 0
-3395 -4227 0
-3396 -4228 0
-3393 -3877 0
-3394 -3878 0
-3395 -3879 0
-3396 -3880 0
-3393 -3881 0
-3394 -3882 0
-3395 -3883 0
-3396 -3884 0
-3393 -5449 0
-3394 -5450 0
-3395 -5451 0
-3396 -5452 0
-3393 -5065 0
-3394 -5066 0
-3395 -5067 0
-3396 -5068 0
-3393 -4053 0
-3394 -4054 0
-3395 -4055 0
-3396 -4056 0
-3393 -5597 0
-3394 -5598 0
-3395 -5599 0
-3396 -5600 0
-3393 -4605 0
-3394 -4606 0
-3395 -4607 0
-3396 -4608 0
-3397 -4237 0
-3398 -4238 0
-3399 -4239 0
-3400 -4240 0
-3397 -4489 0
-3398 -4490 0
-3399 -4491 0
-3400 -4492 0
-3397 -5849 0
-3398 -5850 0
-3399 -5851 0
-3400 -5852 0
-3397 -5601 0
-3398 -5602 0
-3399 -5603 0
-3400 -5604 0
-3401 -6145 0
-3402 -6146 0
-3403 -6147 0
-3404 -6148 0
-3401 -3405 0
-3402 -3406 0
-3403 -3407 0
-3404 -3408 0
-3401 -4429 0
-3402 -4430 0
-3403 -4431 0
-3404 -4432 0
-3401 -5069 0
-3402 -5070 0
-3403 -5071 0
-3404 -5072 0
-3401 -4085 0
-3402 -4086 0
-3403 -4087 0
-3404 -4088 0
-3405 -5853 0
-3406 -5854 0
-3407 -5855 0
-3408 -5856 0
-3405 -4241 0
-3406 -4242 0
-3407 -4243 0
-3408 -4244 0
-3405 -4433 0
-3406 -4434 0
-3407 -4435 0
-3408 -4436 0
-3405 -5341 0
-3406 -5342 0
-3407 -5343 0
-3408 -5344 0
-3409 -5069 0
-3410 -5070 0
-3411 -5071 0
-3412 -5072 0
-3409 -3421 0
-3410 -3422 0
-3411 -3423 0
-3412 -3424 0
-3409 -5861 0
-3410 -5862 0
-3411 -5863 0
-3412 -5864 0
-3409 -4601 0
-3410 -4602 0
-3411 -4603 0
-3412 -4604 0
-3413 -5125 0
-3414 -5126 0
-3415 -5127 0
-3416 -5128 0
-3413 -5661 0
-3414 -5662 0
-3415 -5663 0
-3416 -5664 0
-3413 -5681 0
-3414 -5682 0
-3415 -5683 0
-3416 -5684 0
-3413 -5697 0
-3414 -5698 0
-3415 -5699 0
-3416 -5700 0
-3413 -4349 0
-3414 -4350 0
-3415 -4351 0
-3416 -4352 0
-3413 -3417 0
-3414 -3418 0
-3415 -3419 0
-3416 -3420 0
-3413 -4449 0
-3414 -4450 0
-3415 -4451 0
-3416 -4452 0
-3413 -4485 0
-3414 -4486 0
-3415 -4487 0
-3416 -4488 0
-3413 -3477 0
-3414 -3478 0
-3415 -3479 0
-3416 -3480 0
-3413 -3509 0
-3414 -3510 0
-3415 -3511 0
-3416 -3512 0
-3413 -5089 0
-3414 -5090 0
-3415 -5091 0
-3416 -5092 0
-3413 -4597 0
-3414 -4598 0
-3415 -4599 0
-3416 -4600 0
-3413 -4093 0
-3414 -4094 0
-3415 -4095 0
-3416 -4096 0
-3417 -3585 0
-3418 -3586 0
-3419 -3587 0
-3420 -3588 0
-3417 -5665 0
-3418 -5666 0
-3419 -5667 0
-3420 -5668 0
-3417 -4769 0
-3418 -4770 0
-3419 -4771 0
-3420 -4772 0
-3417 -4353 0
-3418 -4354 0
-3419 -4355 0
-3420 -4356 0
-3417 -3901 0
-3418 -3902 0
-3419 -3903 0
-3420 -3904 0
-3417 -3433 0
-3418 -3434 0
-3419 -3435 0
-3420 -3436 0
-3417 -3481 0
-3418 -3482 0
-3419 -3483 0
-3420 -3484 0
-3417 -3513 0
-3418 -3514 0
-3419 -3515 0
-3420 -3516 0
-3417 -5089 0
-3418 -5090 0
-3419 -5091 0
-3420 -5092 0
-3417 -4073 0
-3418 -4074 0
-3419 -4075 0
-3420 -4076 0
-3417 -4081 0
-3418 -4082 0
-3419 -4083 0
-3420 -4084 0
-3417 -4601 0
-3418 -4602 0
-3419 -4603 0
-3420 -4604 0
-3421 -4613 0
-3422 -4614 0
-3423 -4615 0
-3424 -4616 0
-3421 -4649 0
-3422 -4650 0
-3423 -4651 0
-3424 -4652 0
-3421 -3517 0
-3422 -3518 0
-3423 -3519 0
-3424 -3520 0
-3421 -5685 0
-3422 -5686 0
-3423 -5687 0
-3424 -5688 0
-3421 -5093 0
-3422 -5094 0
-3423 -5095 0
-3424 -5096 0
-3421 -3437 0
-3422 -3438 0
-3423 -3439 0
-3424 -3440 0
-3421 -4849 0
-3422 -4850 0
-3423 -4851 0
-3424 -4852 0
-3425 -4753 0
-3426 -4754 0
-3427 -4755 0
-3428 -4756 0
-3425 -4757 0
-3426 -4758 0
-3427 -4759 0
-3428 -4760 0
-3425 -5681 0
-3426 -5682 0
-3427 -5683 0
-3428 -5684 0
-3425 -3909 0
-3426 -3910 0
-3427 -3911 0
-3428 -3912 0
-3425 -3577 0
-3426 -3578 0
-3427 -3579 0
-3428 -3580 0
-3425 -3921 0
-3426 -3922 0
-3427 -3923 0
-3428 -3924 0
-3425 -4205 0
-3426 -4206 0
-3427 -4207 0
-3428 -4208 0
-3429 -5889 0
-3430 -5890 0
-3431 -5891 0
-3432 -5892 0
-3429 -3593 0
-3430 -3594 0
-3431 -3595 0
-3432 -3596 0
-3429 -4661 0
-3430 -4662 0
-3431 -4663 0
-3432 -4664 0
-3429 -5961 0
-3430 -5962 0
-3431 -5963 0
-3432 -5964 0
-3429 -5465 0
-3430 -5466 0
-3431 -5467 0
-3432 -5468 0
-3429 -3437 0
-3430 -3438 0
-3431 -3439 0
-3432 -3440 0
-3429 -5361 0
-3430 -5362 0
-3431 -5363 0
-3432 -5364 0
-3429 -5113 0
-3430 -5114 0
-3431 -5115 0
-3432 -5116 0
-3433 -4613 0
-3434 -4614 0
-3435 -4615 0
-3436 -4616 0
-3433 -3601 0
-3434 -3602 0
-3435 -3603 0
-3436 -3604 0
-3433 -3925 0
-3434 -3926 0
-3435 -3927 0
-3436 -3928 0
-3433 -5101 0
-3434 -5102 0
-3435 -5103 0
-3436 -5104 0
-3437 -4381 0
-3438 -4382 0
-3439 -4383 0
-3440 -4384 0
-3437 -4673 0
-3438 -4674 0
-3439 -4675 0
-3440 -4676 0
-3437 -5469 0
-3438 -5470 0
-3439 -5471 0
-3440 -5472 0
-3437 -5105 0
-3438 -5106 0
-3439 -5107 0
-3440 -5108 0
-3437 -5365 0
-3438 -5366 0
-3439 -5367 0
-3440 -5368 0
-3437 -4089 0
-3438 -4090 0
-3439 -4091 0
-3440 -4092 0
-3441 -4101 0
-3442 -4102 0
-3443 -4103 0
-3444 -4104 0
-3441 -4517 0
-3442 -4518 0
-3443 -4519 0
-3444 -4520 0
-3441 -4337 0
-3442 -4338 0
-3443 -4339 0
-3444 -4340 0
-3441 -4157 0
-3442 -4158 0
-3443 -4159 0
-3444 -4160 0
-3441 -5473 0
-3442 -5474 0
-3443 -5475 0
-3444 -5476 0
-3441 -3833 0
-3442 -3834 0
-3443 -3835 0
-3444 -3836 0
-3445 -3849 0
-3446 -3850 0
-3447 -3851 0
-3448 -3852 0
-3445 -3477 0
-3446 -3478 0
-3447 -3479 0
-3448 -3480 0
-3445 -4349 0
-3446 -4350 0
-3447 -4351 0
-3448 -4352 0
-3449 -4633 0
-3450 -4634 0
-3451 -4635 0
-3452 -4636 0
-3449 -4153 0
-3450 -4154 0
-3451 -4155 0
-3452 -4156 0
-3449 -4185 0
-3450 -4186 0
-3451 -4187 0
-3452 -4188 0
-3449 -5809 0
-3450 -5810 0
-3451 -5811 0
-3452 -5812 0
-3449 -4281 0
-3450 -4282 0
-3451 -4283 0
-3452 -4284 0
-3449 -4361 0
-3450 -4362 0
-3451 -4363 0
-3452 -4364 0
-3449 -3861 0
-3450 -3862 0
-3451 -3863 0
-3452 -3864 0
-3449 -4405 0
-3450 -4406 0
-3451 -4407 0
-3452 -4408 0
-3449 -3485 0
-3450 -3486 0
-3451 -3487 0
-3452 -3488 0
-3449 -3577 0
-3450 -3578 0
-3451 -3579 0
-3452 -3580 0
-3453 -3877 0
-3454 -3878 0
-3455 -3879 0
-3456 -3880 0
-3453 -4649 0
-3454 -4650 0
-3455 -4651 0
-3456 -4652 0
-3453 -3901 0
-3454 -3902 0
-3455 -3903 0
-3456 -3904 0
-3453 -4289 0
-3454 -4290 0
-3455 -4291 0
-3456 -4292 0
-3453 -5101 0
-3454 -5102 0
-3455 -5103 0
-3456 -5104 0
-3453 -5201 0
-3454 -5202 0
-3455 -5203 0
-3456 -5204 0
-3453 -4457 0
-3454 -4458 0
-3455 -4459 0
-3456 -4460 0
-3457 -4121 0
-3458 -4122 0
-3459 -4123 0
-3460 -4124 0
-3457 -3493 0
-3458 -3494 0
-3459 -3495 0
-3460 -3496 0
-3457 -4781 0
-3458 -4782 0
-3459 -4783 0
-3460 -4784 0
-3457 -6069 0
-3458 -6070 0
-3459 -6071 0
-3460 -6072 0
-3461 -3585 0
-3462 -3586 0
-3463 -3587 0
-3464 -3588 0
-3461 -4621 0
-3462 -4622 0
-3463 -4623 0
-3464 -4624 0
-3461 -4873 0
-3462 -4874 0
-3463 -4875 0
-3464 -4876 0
-3461 -4629 0
-3462 -4630 0
-3463 -4631 0
-3464 -4632 0
-3461 -4125 0
-3462 -4126 0
-3463 -4127 0
-3464 -4128 0
-3461 -4889 0
-3462 -4890 0
-3463 -4891 0
-3464 -4892 0
-3461 -5169 0
-3462 -5170 0
-3463 -5171 0
-3464 -5172 0
-3465 -5045 0
-3466 -5046 0
-3467 -5047 0
-3468 -5048 0
-3465 -4157 0
-3466 -4158 0
-3467 -4159 0
-3468 -4160 0
-3465 -4553 0
-3466 -4554 0
-3467 -4555 0
-3468 -4556 0
-3465 -5201 0
-3466 -5202 0
-3467 -5203 0
-3468 -5204 0
-3465 -5877 0
-3466 -5878 0
-3467 -5879 0
-3468 -5880 0
-3465 -4473 0
-3466 -4474 0
-3467 -4475 0
-3468 -4476 0
-3469 -5377 0
-3470 -5378 0
-3471 -5379 0
-3472 -5380 0
-3469 -4657 0
-3470 -4658 0
-3471 -4659 0
-3472 -4660 0
-3469 -5293 0
-3470 -5294 0
-3471 -5295 0
-3472 -5296 0
-3469 -6065 0
-3470 -6066 0
-3471 -6067 0
-3472 -6068 0
-3469 -4573 0
-3470 -4574 0
-3471 -4575 0
-3472 -4576 0
-3469 -4349 0
-3470 -4350 0
-3471 -4351 0
-3472 -4352 0
-3473 -4673 0
-3474 -4674 0
-3475 -4675 0
-3476 -4676 0
-3473 -5877 0
-3474 -5878 0
-3475 -5879 0
-3476 -5880 0
-3473 -4349 0
-3474 -4350 0
-3475 -4351 0
-3476 -4352 0
-3473 -4361 0
-3474 -4362 0
-3475 -4363 0
-3476 -4364 0
-3473 -5477 0
-3474 -5478 0
-3475 -5479 0
-3476 -5480 0
-3473 -4517 0
-3474 -4518 0
-3475 -4519 0
-3476 -4520 0
-3473 -3517 0
-3474 -3518 0
-3475 -3519 0
-3476 -3520 0
-3473 -4561 0
-3474 -4562 0
-3475 -4563 0
-3476 -4564 0
-3473 -4573 0
-3474 -4574 0
-3475 -4575 0
-3476 -4576 0
-3477 -4657 0
-3478 -4658 0
-3479 -4659 0
-3480 -4660 0
-3477 -4153 0
-3478 -4154 0
-3479 -4155 0
-3480 -4156 0
-3477 -4229 0
-3478 -4230 0
-3479 -4231 0
-3480 -4232 0
-3477 -4317 0
-3478 -4318 0
-3479 -4319 0
-3480 -4320 0
-3477 -5381 0
-3478 -5382 0
-3479 -5383 0
-3480 -5384 0
-3477 -4373 0
-3478 -4374 0
-3479 -4375 0
-3480 -4376 0
-3477 -4913 0
-3478 -4914 0
-3479 -4915 0
-3480 -4916 0
-3477 -3913 0
-3478 -3914 0
-3479 -3915 0
-3480 -3916 0
-3477 -4429 0
-3478 -4430 0
-3479 -4431 0
-3480 -4432 0
-3477 -4465 0
-3478 -4466 0
-3479 -4467 0
-3480 -4468 0
-3477 -3481 0
-3478 -3482 0
-3479 -3483 0
-3480 -3484 0
-3477 -5073 0
-3478 -5074 0
-3479 -5075 0
-3480 -5076 0
-3481 -4661 0
-3482 -4662 0
-3483 -4663 0
-3484 -4664 0
-3481 -4701 0
-3482 -4702 0
-3483 -4703 0
-3484 -4704 0
-3481 -4233 0
-3482 -4234 0
-3483 -4235 0
-3484 -4236 0
-3481 -4789 0
-3482 -4790 0
-3483 -4791 0
-3484 -4792 0
-3481 -4321 0
-3482 -4322 0
-3483 -4323 0
-3484 -4324 0
-3481 -5385 0
-3482 -5386 0
-3483 -5387 0
-3484 -5388 0
-3481 -3917 0
-3482 -3918 0
-3483 -3919 0
-3484 -3920 0
-3481 -4433 0
-3482 -4434 0
-3483 -4435 0
-3484 -4436 0
-3481 -3485 0
-3482 -3486 0
-3483 -3487 0
-3484 -3488 0
-3485 -4621 0
-3486 -4622 0
-3487 -4623 0
-3488 -4624 0
-3485 -4153 0
-3486 -4154 0
-3487 -4155 0
-3488 -4156 0
-3485 -4673 0
-3486 -4674 0
-3487 -4675 0
-3488 -4676 0
-3485 -4241 0
-3486 -4242 0
-3487 -4243 0
-3488 -4244 0
-3485 -4333 0
-3486 -4334 0
-3487 -4335 0
-3488 -4336 0
-3485 -4373 0
-3486 -4374 0
-3487 -4375 0
-3488 -4376 0
-3485 -4913 0
-3486 -4914 0
-3487 -4915 0
-3488 -4916 0
-3485 -3925 0
-3486 -3926 0
-3487 -3927 0
-3488 -3928 0
-3485 -4445 0
-3486 -4446 0
-3487 -4447 0
-3488 -4448 0
-3485 -4473 0
-3486 -4474 0
-3487 -4475 0
-3488 -4476 0
-3489 -4489 0
-3490 -4490 0
-3491 -4491 0
-3492 -4492 0
-3489 -5317 0
-3490 -5318 0
-3491 -5319 0
-3492 -5320 0
-3489 -5837 0
-3490 -5838 0
-3491 -5839 0
-3492 -5840 0
-3489 -4189 0
-3490 -4190 0
-3491 -4191 0
-3492 -4192 0
-3489 -4581 0
-3490 -4582 0
-3491 -4583 0
-3492 -4584 0
-3493 -4225 0
-3494 -4226 0
-3495 -4227 0
-3496 -4228 0
-3493 -4629 0
-3494 -4630 0
-3495 -4631 0
-3496 -4632 0
-3493 -4589 0
-3494 -4590 0
-3495 -4591 0
-3496 -4592 0
-3493 -4021 0
-3494 -4022 0
-3495 -4023 0
-3496 -4024 0
-3493 -3653 0
-3494 -3654 0
-3495 -3655 0
-3496 -3656 0
-3493 -3961 0
-3494 -3962 0
-3495 -3963 0
-3496 -3964 0
-3493 -4181 0
-3494 -4182 0
-3495 -4183 0
-3496 -4184 0
-3493 -3685 0
-3494 -3686 0
-3495 -3687 0
-3496 -3688 0
-3497 -5149 0
-3498 -5150 0
-3499 -5151 0
-3500 -5152 0
-3497 -3625 0
-3498 -3626 0
-3499 -3627 0
-3500 -3628 0
-3497 -4657 0
-3498 -4658 0
-3499 -4659 0
-3500 -4660 0
-3497 -4185 0
-3498 -4186 0
-3499 -4187 0
-3500 -4188 0
-3497 -5213 0
-3498 -5214 0
-3499 -5215 0
-3500 -5216 0
-3497 -4229 0
-3498 -4230 0
-3499 -4231 0
-3500 -4232 0
-3497 -5397 0
-3498 -5398 0
-3499 -5399 0
-3500 -5400 0
-3497 -4389 0
-3498 -4390 0
-3499 -4391 0
-3500 -4392 0
-3497 -4413 0
-3498 -4414 0
-3499 -4415 0
-3500 -4416 0
-3497 -4929 0
-3498 -4930 0
-3499 -4931 0
-3500 -4932 0
-3497 -5529 0
-3498 -5530 0
-3499 -5531 0
-3500 -5532 0
-3497 -3501 0
-3498 -3502 0
-3499 -3503 0
-3500 -3504 0
-3497 -3569 0
-3498 -3570 0
-3499 -3571 0
-3500 -3572 0
-3501 -5137 0
-3502 -5138 0
-3503 -5139 0
-3504 -5140 0
-3501 -4661 0
-3502 -4662 0
-3503 -4663 0
-3504 -4664 0
-3501 -4173 0
-3502 -4174 0
-3503 -4175 0
-3504 -4176 0
-3501 -4705 0
-3502 -4706 0
-3503 -4707 0
-3504 -4708 0
-3501 -5217 0
-3502 -5218 0
-3503 -5219 0
-3504 -5220 0
-3501 -4233 0
-3502 -4234 0
-3503 -4235 0
-3504 -4236 0
-3501 -4805 0
-3502 -4806 0
-3503 -4807 0
-3504 -4808 0
-3501 -4813 0
-3502 -4814 0
-3503 -4815 0
-3504 -4816 0
-3501 -5901 0
-3502 -5902 0
-3503 -5903 0
-3504 -5904 0
-3501 -4933 0
-3502 -4934 0
-3503 -4935 0
-3504 -4936 0
-3501 -4469 0
-3502 -4470 0
-3503 -4471 0
-3504 -4472 0
-3501 -3505 0
-3502 -3506 0
-3503 -3507 0
-3504 -3508 0
-3501 -3509 0
-3502 -3510 0
-3503 -3511 0
-3504 -3512 0
-3501 -4025 0
-3502 -4026 0
-3503 -4027 0
-3504 -4028 0
-3501 -3545 0
-3502 -3546 0
-3503 -3547 0
-3504 -3548 0
-3501 -4593 0
-3502 -4594 0
-3503 -4595 0
-3504 -4596 0
-3505 -4629 0
-3506 -4630 0
-3507 -4631 0
-3508 -4632 0
-3505 -3629 0
-3506 -3630 0
-3507 -3631 0
-3508 -3632 0
-3505 -4673 0
-3506 -4674 0
-3507 -4675 0
-3508 -4676 0
-3505 -4185 0
-3506 -4186 0
-3507 -4187 0
-3508 -4188 0
-3505 -5229 0
-3506 -5230 0
-3507 -5231 0
-3508 -5232 0
-3505 -4241 0
-3506 -4242 0
-3507 -4243 0
-3508 -4244 0
-3505 -4413 0
-3506 -4414 0
-3507 -4415 0
-3508 -4416 0
-3505 -4417 0
-3506 -4418 0
-3507 -4419 0
-3508 -4420 0
-3505 -4929 0
-3506 -4930 0
-3507 -4931 0
-3508 -4932 0
-3505 -5529 0
-3506 -5530 0
-3507 -5531 0
-3508 -5532 0
-3505 -4037 0
-3506 -4038 0
-3507 -4039 0
-3508 -4040 0
-3509 -5649 0
-3510 -5650 0
-3511 -5651 0
-3512 -5652 0
-3509 -4641 0
-3510 -4642 0
-3511 -4643 0
-3512 -4644 0
-3509 -5165 0
-3510 -5166 0
-3511 -5167 0
-3512 -5168 0
-3509 -5169 0
-3510 -5170 0
-3511 -5171 0
-3512 -5172 0
-3509 -3637 0
-3510 -3638 0
-3511 -3639 0
-3512 -3640 0
-3509 -5181 0
-3510 -5182 0
-3511 -5183 0
-3512 -5184 0
-3509 -4685 0
-3510 -4686 0
-3511 -4687 0
-3512 -4688 0
-3509 -4257 0
-3510 -4258 0
-3511 -4259 0
-3512 -4260 0
-3509 -5889 0
-3510 -5890 0
-3511 -5891 0
-3512 -5892 0
-3509 -4941 0
-3510 -4942 0
-3511 -4943 0
-3512 -4944 0
-3509 -4953 0
-3510 -4954 0
-3511 -4955 0
-3512 -4956 0
-3509 -3981 0
-3510 -3982 0
-3511 -3983 0
-3512 -3984 0
-3509 -3513 0
-3510 -3514 0
-3511 -3515 0
-3512 -3516 0
-3509 -4601 0
-3510 -4602 0
-3511 -4603 0
-3512 -4604 0
-3513 -3985 0
-3514 -3986 0
-3515 -3987 0
-3516 -3988 0
-3513 -5169 0
-3514 -5170 0
-3515 -5171 0
-3516 -5172 0
-3513 -3641 0
-3514 -3642 0
-3515 -3643 0
-3516 -3644 0
-3513 -4681 0
-3514 -4682 0
-3515 -4683 0
-3516 -4684 0
-3513 -5173 0
-3514 -5174 0
-3515 -5175 0
-3516 -5176 0
-3513 -4057 0
-3514 -4058 0
-3515 -4059 0
-3516 -4060 0
-3513 -4825 0
-3514 -4826 0
-3515 -4827 0
-3516 -4828 0
-3517 -5653 0
-3518 -5654 0
-3519 -5655 0
-3520 -5656 0
-3517 -3645 0
-3518 -3646 0
-3519 -3647 0
-3520 -3648 0
-3517 -4697 0
-3518 -4698 0
-3519 -4699 0
-3520 -4700 0
-3517 -4201 0
-3518 -4202 0
-3519 -4203 0
-3520 -4204 0
-3517 -4225 0
-3518 -4226 0
-3519 -4227 0
-3520 -4228 0
-3517 -4405 0
-3518 -4406 0
-3519 -4407 0
-3520 -4408 0
-3517 -4429 0
-3518 -4430 0
-3519 -4431 0
-3520 -4432 0
-3517 -4945 0
-3518 -4946 0
-3519 -4947 0
-3520 -4948 0
-3517 -4445 0
-3518 -4446 0
-3519 -4447 0
-3520 -4448 0
-3517 -4957 0
-3518 -4958 0
-3519 -4959 0
-3520 -4960 0
-3517 -5497 0
-3518 -5498 0
-3519 -5499 0
-3520 -5500 0
-3517 -5533 0
-3518 -5534 0
-3519 -5535 0
-3520 -5536 0
-3517 -5537 0
-3518 -5538 0
-3519 -5539 0
-3520 -5540 0
-3517 -5565 0
-3518 -5566 0
-3519 -5567 0
-3520 -5568 0
-3517 -4557 0
-3518 -4558 0
-3519 -4559 0
-3520 -4560 0
-3517 -5113 0
-3518 -5114 0
-3519 -5115 0
-3520 -5116 0
-3521 -6021 0
-3522 -6022 0
-3523 -6023 0
-3524 -6024 0
-3521 -5769 0
-3522 -5770 0
-3523 -5771 0
-3524 -5772 0
-3521 -5917 0
-3522 -5918 0
-3523 -5919 0
-3524 -5920 0
-3521 -5413 0
-3522 -5414 0
-3523 -5415 0
-3524 -5416 0
-3521 -4661 0
-3522 -4662 0
-3523 -4663 0
-3524 -4664 0
-3521 -3529 0
-3522 -3530 0
-3523 -3531 0
-3524 -3532 0
-3521 -4577 0
-3522 -4578 0
-3523 -4579 0
-3524 -4580 0
-3525 -5777 0
-3526 -5778 0
-3527 -5779 0
-3528 -5780 0
-3525 -3997 0
-3526 -3998 0
-3527 -3999 0
-3528 -4000 0
-3525 -4517 0
-3526 -4518 0
-3527 -4519 0
-3528 -4520 0
-3525 -4649 0
-3526 -4650 0
-3527 -4651 0
-3528 -4652 0
-3525 -3649 0
-3526 -3650 0
-3527 -3651 0
-3528 -3652 0
-3525 -4053 0
-3526 -4054 0
-3527 -4055 0
-3528 -4056 0
-3525 -3549 0
-3526 -3550 0
-3527 -3551 0
-3528 -3552 0
-3525 -4073 0
-3526 -4074 0
-3527 -4075 0
-3528 -4076 0
-3525 -4213 0
-3526 -4214 0
-3527 -4215 0
-3528 -4216 0
-3525 -5241 0
-3526 -5242 0
-3527 -5243 0
-3528 -5244 0
-3529 -4645 0
-3530 -4646 0
-3531 -4647 0
-3532 -4648 0
-3529 -4461 0
-3530 -4462 0
-3531 -4463 0
-3532 -4464 0
-3529 -5481 0
-3530 -5482 0
-3531 -5483 0
-3532 -5484 0
-3529 -4973 0
-3530 -4974 0
-3531 -4975 0
-3532 -4976 0
-3529 -4673 0
-3530 -4674 0
-3531 -4675 0
-3532 -4676 0
-3529 -5569 0
-3530 -5570 0
-3531 -5571 0
-3532 -5572 0
-3529 -3533 0
-3530 -3534 0
-3531 -3535 0
-3532 -3536 0
-3529 -4597 0
-3530 -4598 0
-3531 -4599 0
-3532 -4600 0
-3529 -4969 0
-3530 -4970 0
-3531 -4971 0
-3532 -4972 0
-3529 -4469 0
-3530 -4470 0
-3531 -4471 0
-3532 -4472 0
-3533 -4649 0
-3534 -4650 0
-3535 -4651 0
-3536 -4652 0
-3533 -4681 0
-3534 -4682 0
-3535 -4683 0
-3536 -4684 0
-3533 -5197 0
-3534 -5198 0
-3535 -5199 0
-3536 -5200 0
-3533 -3573 0
-3534 -3574 0
-3535 -3575 0
-3536 -3576 0
-3537 -4233 0
-3538 -4234 0
-3539 -4235 0
-3540 -4236 0
-3537 -5729 0
-3538 -5730 0
-3539 -5731 0
-3540 -5732 0
-3537 -4713 0
-3538 -4714 0
-3539 -4715 0
-3540 -4716 0
-3537 -5245 0
-3538 -5246 0
-3539 -5247 0
-3540 -5248 0
-3541 -4661 0
-3542 -4662 0
-3543 -4663 0
-3544 -4664 0
-3541 -3549 0
-3542 -3550 0
-3543 -3551 0
-3544 -3552 0
-3541 -4085 0
-3542 -4086 0
-3543 -4087 0
-3544 -4088 0
-3545 -3601 0
-3546 -3602 0
-3547 -3603 0
-3548 -3604 0
-3545 -5681 0
-3546 -5682 0
-3547 -5683 0
-3548 -5684 0
-3545 -4669 0
-3546 -4670 0
-3547 -4671 0
-3548 -4672 0
-3545 -5197 0
-3546 -5198 0
-3547 -5199 0
-3548 -5200 0
-3545 -4693 0
-3546 -4694 0
-3547 -4695 0
-3548 -4696 0
-3545 -5717 0
-3546 -5718 0
-3547 -5719 0
-3548 -5720 0
-3545 -4717 0
-3546 -4718 0
-3547 -4719 0
-3548 -4720 0
-3545 -4233 0
-3546 -4234 0
-3547 -4235 0
-3548 -4236 0
-3545 -4245 0
-3546 -4246 0
-3547 -4247 0
-3548 -4248 0
-3545 -5785 0
-3546 -5786 0
-3547 -5787 0
-3548 -5788 0
-3545 -4265 0
-3546 -4266 0
-3547 -4267 0
-3548 -4268 0
-3545 -5909 0
-3546 -5910 0
-3547 -5911 0
-3548 -5912 0
-3545 -6093 0
-3546 -6094 0
-3547 -6095 0
-3548 -6096 0
-3545 -3549 0
-3546 -3550 0
-3547 -3551 0
-3548 -3552 0
-3545 -4585 0
-3546 -4586 0
-3547 -4587 0
-3548 -4588 0
-3545 -4589 0
-3546 -4590 0
-3547 -4591 0
-3548 -4592 0
-3549 -4237 0
-3550 -4238 0
-3551 -4239 0
-3552 -4240 0
-3549 -4529 0
-3550 -4530 0
-3551 -4531 0
-3552 -4532 0
-3549 -4673 0
-3550 -4674 0
-3551 -4675 0
-3552 -4676 0
-3549 -5197 0
-3550 -5198 0
-3551 -5199 0
-3552 -5200 0
-3549 -5721 0
-3550 -5722 0
-3551 -5723 0
-3552 -5724 0
-3549 -4845 0
-3550 -4846 0
-3551 -4847 0
-3552 -4848 0
-3553 -5461 0
-3554 -5462 0
-3555 -5463 0
-3556 -5464 0
-3553 -5225 0
-3554 -5226 0
-3555 -5227 0
-3556 -5228 0
-3553 -5233 0
-3554 -5234 0
-3555 -5235 0
-3556 -5236 0
-3553 -4601 0
-3554 -4602 0
-3555 -4603 0
-3556 -4604 0
-3557 -5773 0
-3558 -5774 0
-3559 -5775 0
-3560 -5776 0
-3557 -5485 0
-3558 -5486 0
-3559 -5487 0
-3560 -5488 0
-3557 -5233 0
-3558 -5234 0
-3559 -5235 0
-3560 -5236 0
-3561 -3585 0
-3562 -3586 0
-3563 -3587 0
-3564 -3588 0
-3561 -5009 0
-3562 -5010 0
-3563 -5011 0
-3564 -5012 0
-3561 -5017 0
-3562 -5018 0
-3563 -5019 0
-3564 -5020 0
-3561 -3997 0
-3562 -3998 0
-3563 -3999 0
-3564 -4000 0
-3561 -4509 0
-3562 -4510 0
-3563 -4511 0
-3564 -4512 0
-3561 -5265 0
-3562 -5266 0
-3563 -5267 0
-3564 -5268 0
-3561 -4521 0
-3562 -4522 0
-3563 -4523 0
-3564 -4524 0
-3561 -4141 0
-3562 -4142 0
-3563 -4143 0
-3564 -4144 0
-3561 -4589 0
-3562 -4590 0
-3563 -4591 0
-3564 -4592 0
-3561 -4717 0
-3562 -4718 0
-3563 -4719 0
-3564 -4720 0
-3561 -3565 0
-3562 -3566 0
-3563 -3567 0
-3564 -3568 0
-3565 -4621 0
-3566 -4622 0
-3567 -4623 0
-3568 -4624 0
-3565 -4117 0
-3566 -4118 0
-3567 -4119 0
-3568 -4120 0
-3565 -4517 0
-3566 -4518 0
-3567 -4519 0
-3568 -4520 0
-3565 -4393 0
-3566 -4394 0
-3567 -4395 0
-3568 -4396 0
-3569 -3597 0
-3570 -3598 0
-3571 -3599 0
-3572 -3600 0
-3569 -5021 0
-3570 -5022 0
-3571 -5023 0
-3572 -5024 0
-3569 -4529 0
-3570 -4530 0
-3571 -4531 0
-3572 -4532 0
-3569 -5181 0
-3570 -5182 0
-3571 -5183 0
-3572 -5184 0
-3569 -4293 0
-3570 -4294 0
-3571 -4295 0
-3572 -4296 0
-3569 -4721 0
-3570 -4722 0
-3571 -4723 0
-3572 -4724 0
-3573 -4565 0
-3574 -4566 0
-3575 -4567 0
-3576 -4568 0
-3573 -4321 0
-3574 -4322 0
-3575 -4323 0
-3576 -4324 0
-3573 -5349 0
-3574 -5350 0
-3575 -5351 0
-3576 -5352 0
-3573 -4601 0
-3574 -4602 0
-3575 -4603 0
-3576 -4604 0
-3577 -3605 0
-3578 -3606 0
-3579 -3607 0
-3580 -3608 0
-3577 -4429 0
-3578 -4430 0
-3579 -4431 0
-3580 -4432 0
-3577 -4601 0
-3578 -4602 0
-3579 -4603 0
-3580 -4604 0
-3577 -4077 0
-3578 -4078 0
-3579 -4079 0
-3580 -4080 0
-3581 -3841 0
-3582 -3842 0
-3583 -3843 0
-3584 -3844 0
-3581 -5293 0
-3582 -5294 0
-3583 -5295 0
-3584 -5296 0
-3581 -4313 0
-3582 -4314 0
-3583 -4315 0
-3584 -4316 0
-3581 -4713 0
-3582 -4714 0
-3583 -4715 0
-3584 -4716 0
-3585 -3601 0
-3586 -3602 0
-3587 -3603 0
-3588 -3604 0
-3585 -4129 0
-3586 -4130 0
-3587 -4131 0
-3588 -4132 0
-3585 -4649 0
-3586 -4650 0
-3587 -4651 0
-3588 -4652 0
-3585 -3669 0
-3586 -3670 0
-3587 -3671 0
-3588 -3672 0
-3585 -4721 0
-3586 -4722 0
-3587 -4723 0
-3588 -4724 0
-3585 -5317 0
-3586 -5318 0
-3587 -5319 0
-3588 -5320 0
-3585 -4341 0
-3586 -4342 0
-3587 -4343 0
-3588 -4344 0
-3585 -3877 0
-3586 -3878 0
-3587 -3879 0
-3588 -3880 0
-3585 -3901 0
-3586 -3902 0
-3587 -3903 0
-3588 -3904 0
-3585 -4457 0
-3586 -4458 0
-3587 -4459 0
-3588 -4460 0
-3585 -5045 0
-3586 -5046 0
-3587 -5047 0
-3588 -5048 0
-3585 -4549 0
-3586 -4550 0
-3587 -4551 0
-3588 -4552 0
-3589 -3601 0
-3590 -3602 0
-3591 -3603 0
-3592 -3604 0
-3589 -3629 0
-3590 -3630 0
-3591 -3631 0
-3592 -3632 0
-3589 -4661 0
-3590 -4662 0
-3591 -4663 0
-3592 -4664 0
-3589 -5777 0
-3590 -5778 0
-3591 -5779 0
-3592 -5780 0
-3589 -5337 0
-3590 -5338 0
-3591 -5339 0
-3592 -5340 0
-3589 -4349 0
-3590 -4350 0
-3591 -4351 0
-3592 -4352 0
-3589 -4361 0
-3590 -4362 0
-3591 -4363 0
-3592 -4364 0
-3589 -3917 0
-3590 -3918 0
-3591 -3919 0
-3592 -3920 0
-3589 -4429 0
-3590 -4430 0
-3591 -4431 0
-3592 -4432 0
-3589 -5493 0
-3590 -5494 0
-3591 -5495 0
-3592 -5496 0
-3589 -5061 0
-3590 -5062 0
-3591 -5063 0
-3592 -5064 0
-3589 -6105 0
-3590 -6106 0
-3591 -6107 0
-3592 -6108 0
-3589 -4573 0
-3590 -4574 0
-3591 -4575 0
-3592 -4576 0
-3589 -4077 0
-3590 -4078 0
-3591 -4079 0
-3592 -4080 0
-3593 -3597 0
-3594 -3598 0
-3595 -3599 0
-3596 -3600 0
-3593 -4365 0
-3594 -4366 0
-3595 -4367 0
-3596 -4368 0
-3593 -4625 0
-3594 -4626 0
-3595 -4627 0
-3596 -4628 0
-3593 -3633 0
-3594 -3634 0
-3595 -3635 0
-3596 -3636 0
-3593 -5421 0
-3594 -5422 0
-3595 -5423 0
-3596 -5424 0
-3593 -5437 0
-3594 -5438 0
-3595 -5439 0
-3596 -5440 0
-3593 -6085 0
-3594 -6086 0
-3595 -6087 0
-3596 -6088 0
-3593 -4733 0
-3594 -4734 0
-3595 -4735 0
-3596 -4736 0
-3597 -3601 0
-3598 -3602 0
-3599 -3603 0
-3600 -3604 0
-3597 -3605 0
-3598 -3606 0
-3599 -3607 0
-3600 -3608 0
-3597 -4629 0
-3598 -4630 0
-3599 -4631 0
-3600 -4632 0
-3597 -3637 0
-3598 -3638 0
-3599 -3639 0
-3600 -3640 0
-3597 -4669 0
-3598 -4670 0
-3599 -4671 0
-3600 -4672 0
-3597 -5265 0
-3598 -5266 0
-3599 -5267 0
-3600 -5268 0
-3597 -5781 0
-3598 -5782 0
-3599 -5783 0
-3600 -5784 0
-3597 -4369 0
-3598 -4370 0
-3599 -4371 0
-3600 -4372 0
-3597 -4437 0
-3598 -4438 0
-3599 -4439 0
-3600 -4440 0
-3597 -4541 0
-3598 -4542 0
-3599 -4543 0
-3600 -4544 0
-3601 -3641 0
-3602 -3642 0
-3603 -3643 0
-3604 -3644 0
-3601 -4673 0
-3602 -4674 0
-3603 -4675 0
-3604 -4676 0
-3601 -5265 0
-3602 -5266 0
-3603 -5267 0
-3604 -5268 0
-3601 -5341 0
-3602 -5342 0
-3603 -5343 0
-3604 -5344 0
-3601 -4357 0
-3602 -4358 0
-3603 -4359 0
-3604 -4360 0
-3601 -4909 0
-3602 -4910 0
-3603 -4911 0
-3604 -4912 0
-3601 -3925 0
-3602 -3926 0
-3603 -3927 0
-3604 -3928 0
-3601 -4441 0
-3602 -4442 0
-3603 -4443 0
-3604 -4444 0
-3601 -4473 0
-3602 -4474 0
-3603 -4475 0
-3604 -4476 0
-3601 -5497 0
-3602 -5498 0
-3603 -5499 0
-3604 -5500 0
-3605 -4365 0
-3606 -4366 0
-3607 -4367 0
-3608 -4368 0
-3605 -5269 0
-3606 -5270 0
-3607 -5271 0
-3608 -5272 0
-3605 -4545 0
-3606 -4546 0
-3607 -4547 0
-3608 -4548 0
-3609 -5345 0
-3610 -5346 0
-3611 -5347 0
-3612 -5348 0
-3609 -4549 0
-3610 -4550 0
-3611 -4551 0
-3612 -4552 0
-3613 -4233 0
-3614 -4234 0
-3615 -4235 0
-3616 -4236 0
-3613 -4401 0
-3614 -4402 0
-3615 -4403 0
-3616 -4404 0
-3613 -4661 0
-3614 -4662 0
-3615 -4663 0
-3616 -4664 0
-3613 -5561 0
-3614 -5562 0
-3615 -5563 0
-3616 -5564 0
-3613 -3649 0
-3614 -3650 0
-3615 -3651 0
-3616 -3652 0
-3613 -3917 0
-3614 -3918 0
-3615 -3919 0
-3616 -3920 0
-3617 -5793 0
-3618 -5794 0
-3619 -5795 0
-3620 -5796 0
-3617 -3621 0
-3618 -3622 0
-3619 -3623 0
-3620 -3624 0
-3617 -5289 0
-3618 -5290 0
-3619 -5291 0
-3620 -5292 0
-3617 -5293 0
-3618 -5294 0
-3619 -5295 0
-3620 -5296 0
-3617 -3665 0
-3618 -3666 0
-3619 -3667 0
-3620 -3668 0
-3617 -5729 0
-3618 -5730 0
-3619 -5731 0
-3620 -5732 0
-3621 -3629 0
-3622 -3630 0
-3623 -3631 0
-3624 -3632 0
-3621 -4249 0
-3622 -4250 0
-3623 -4251 0
-3624 -4252 0
-3621 -5293 0
-3622 -5294 0
-3623 -5295 0
-3624 -5296 0
-3621 -5297 0
-3622 -5298 0
-3623 -5299 0
-3624 -5300 0
-3621 -5361 0
-3622 -5362 0
-3623 -5363 0
-3624 -5364 0
-3621 -4409 0
-3622 -4410 0
-3623 -4411 0
-3624 -4412 0
-3621 -6093 0
-3622 -6094 0
-3623 -6095 0
-3624 -6096 0
-3621 -5097 0
-3622 -5098 0
-3623 -5099 0
-3624 -5100 0
-3621 -5101 0
-3622 -5102 0
-3623 -5103 0
-3624 -5104 0
-3625 -5805 0
-3626 -5806 0
-3627 -5807 0
-3628 -5808 0
-3625 -5565 0
-3626 -5566 0
-3627 -5567 0
-3628 -5568 0
-3625 -4429 0
-3626 -4430 0
-3627 -4431 0
-3628 -4432 0
-3625 -4945 0
-3626 -4946 0
-3627 -4947 0
-3628 -4948 0
-3625 -5737 0
-3626 -5738 0
-3627 -5739 0
-3628 -5740 0
-3625 -5369 0
-3626 -5370 0
-3627 -5371 0
-3628 -5372 0
-3629 -3641 0
-3630 -3642 0
-3631 -3643 0
-3632 -3644 0
-3629 -4693 0
-3630 -4694 0
-3631 -4695 0
-3632 -4696 0
-3629 -4201 0
-3630 -4202 0
-3631 -4203 0
-3632 -4204 0
-3629 -5749 0
-3630 -5750 0
-3631 -5751 0
-3632 -5752 0
-3629 -4737 0
-3630 -4738 0
-3631 -4739 0
-3632 -4740 0
-3629 -5309 0
-3630 -5310 0
-3631 -5311 0
-3632 -5312 0
-3629 -5821 0
-3630 -5822 0
-3631 -5823 0
-3632 -5824 0
-3629 -4429 0
-3630 -4430 0
-3631 -4431 0
-3632 -4432 0
-3629 -4945 0
-3630 -4946 0
-3631 -4947 0
-3632 -4948 0
-3629 -4445 0
-3630 -4446 0
-3631 -4447 0
-3632 -4448 0
-3629 -4957 0
-3630 -4958 0
-3631 -4959 0
-3632 -4960 0
-3629 -3945 0
-3630 -3946 0
-3631 -3947 0
-3632 -3948 0
-3629 -4489 0
-3630 -4490 0
-3631 -4491 0
-3632 -4492 0
-3629 -4493 0
-3630 -4494 0
-3631 -4495 0
-3632 -4496 0
-3629 -5565 0
-3630 -5566 0
-3631 -5567 0
-3632 -5568 0
-3629 -6097 0
-3630 -6098 0
-3631 -6099 0
-3632 -6100 0
-3633 -4613 0
-3634 -4614 0
-3635 -4615 0
-3636 -4616 0
-3633 -6045 0
-3634 -6046 0
-3635 -6047 0
-3636 -6048 0
-3633 -3637 0
-3634 -3638 0
-3635 -3639 0
-3636 -3640 0
-3633 -3645 0
-3634 -3646 0
-3635 -3647 0
-3636 -3648 0
-3633 -4661 0
-3634 -4662 0
-3635 -4663 0
-3636 -4664 0
-3633 -5313 0
-3634 -5314 0
-3635 -5315 0
-3636 -5316 0
-3633 -5117 0
-3634 -5118 0
-3635 -5119 0
-3636 -5120 0
-3637 -3641 0
-3638 -3642 0
-3639 -3643 0
-3640 -3644 0
-3637 -4665 0
-3638 -4666 0
-3639 -4667 0
-3640 -4668 0
-3637 -5753 0
-3638 -5754 0
-3639 -5755 0
-3640 -5756 0
-3637 -5313 0
-3638 -5314 0
-3639 -5315 0
-3640 -5316 0
-3637 -5317 0
-3638 -5318 0
-3639 -5319 0
-3640 -5320 0
-3637 -5333 0
-3638 -5334 0
-3639 -5335 0
-3640 -5336 0
-3637 -4437 0
-3638 -4438 0
-3639 -4439 0
-3640 -4440 0
-3637 -6129 0
-3638 -6130 0
-3639 -6131 0
-3640 -6132 0
-3641 -5317 0
-3642 -5318 0
-3643 -5319 0
-3644 -5320 0
-3641 -5321 0
-3642 -5322 0
-3643 -5323 0
-3644 -5324 0
-3641 -4441 0
-3642 -4442 0
-3643 -4443 0
-3644 -4444 0
-3641 -4697 0
-3642 -4698 0
-3643 -4699 0
-3644 -4700 0
-3641 -4197 0
-3642 -4198 0
-3643 -4199 0
-3644 -4200 0
-3645 -4609 0
-3646 -4610 0
-3647 -4611 0
-3648 -4612 0
-3645 -4673 0
-3646 -4674 0
-3647 -4675 0
-3648 -4676 0
-3645 -5325 0
-3646 -5326 0
-3647 -5327 0
-3648 -5328 0
-3645 -5337 0
-3646 -5338 0
-3647 -5339 0
-3648 -5340 0
-3649 -4633 0
-3650 -4634 0
-3651 -4635 0
-3652 -4636 0
-3649 -3665 0
-3650 -3666 0
-3651 -3667 0
-3652 -3668 0
-3649 -4689 0
-3650 -4690 0
-3651 -4691 0
-3652 -4692 0
-3649 -4693 0
-3650 -4694 0
-3651 -4695 0
-3652 -4696 0
-3649 -4265 0
-3650 -4266 0
-3651 -4267 0
-3652 -4268 0
-3649 -5817 0
-3650 -5818 0
-3651 -5819 0
-3652 -5820 0
-3649 -5857 0
-3650 -5858 0
-3651 -5859 0
-3652 -5860 0
-3649 -3945 0
-3650 -3946 0
-3651 -3947 0
-3652 -3948 0
-3649 -4493 0
-3650 -4494 0
-3651 -4495 0
-3652 -4496 0
-3653 -4497 0
-3654 -4498 0
-3655 -4499 0
-3656 -4500 0
-3653 -4517 0
-3654 -4518 0
-3655 -4519 0
-3656 -4520 0
-3653 -4157 0
-3654 -4158 0
-3655 -4159 0
-3656 -4160 0
-3653 -4289 0
-3654 -4290 0
-3655 -4291 0
-3656 -4292 0
-3653 -3661 0
-3654 -3662 0
-3655 -3663 0
-3656 -3664 0
-3653 -4701 0
-3654 -4702 0
-3655 -4703 0
-3656 -4704 0
-3653 -4705 0
-3654 -4706 0
-3655 -4707 0
-3656 -4708 0
-3653 -3961 0
-3654 -3962 0
-3655 -3963 0
-3656 -3964 0
-3657 -5401 0
-3658 -5402 0
-3659 -5403 0
-3660 -5404 0
-3657 -4713 0
-3658 -4714 0
-3659 -4715 0
-3660 -4716 0
-3657 -4005 0
-3658 -4006 0
-3659 -4007 0
-3660 -4008 0
-3657 -4517 0
-3658 -4518 0
-3659 -4519 0
-3660 -4520 0
-3657 -5157 0
-3658 -5158 0
-3659 -5159 0
-3660 -5160 0
-3657 -5809 0
-3658 -5810 0
-3659 -5811 0
-3660 -5812 0
-3657 -4209 0
-3658 -4210 0
-3659 -4211 0
-3660 -4212 0
-3661 -4353 0
-3662 -4354 0
-3663 -4355 0
-3664 -4356 0
-3661 -3721 0
-3662 -3722 0
-3663 -3723 0
-3664 -3724 0
-3661 -4517 0
-3662 -4518 0
-3663 -4519 0
-3664 -4520 0
-3661 -5157 0
-3662 -5158 0
-3663 -5159 0
-3664 -5160 0
-3661 -4013 0
-3662 -4014 0
-3663 -4015 0
-3664 -4016 0
-3661 -4717 0
-3662 -4718 0
-3663 -4719 0
-3664 -4720 0
-3661 -5173 0
-3662 -5174 0
-3663 -5175 0
-3664 -5176 0
-3661 -4557 0
-3662 -4558 0
-3663 -4559 0
-3664 -4560 0
-3661 -3801 0
-3662 -3802 0
-3663 -3803 0
-3664 -3804 0
-3661 -3685 0
-3662 -3686 0
-3663 -3687 0
-3664 -3688 0
-3665 -5377 0
-3666 -5378 0
-3667 -5379 0
-3668 -5380 0
-3665 -4033 0
-3666 -4034 0
-3667 -4035 0
-3668 -4036 0
-3665 -4673 0
-3666 -4674 0
-3667 -4675 0
-3668 -4676 0
-3665 -5185 0
-3666 -5186 0
-3667 -5187 0
-3668 -5188 0
-3665 -4577 0
-3666 -4578 0
-3667 -4579 0
-3668 -4580 0
-3669 -4661 0
-3670 -4662 0
-3671 -4663 0
-3672 -4664 0
-3669 -4677 0
-3670 -4678 0
-3671 -4679 0
-3672 -4680 0
-3669 -3673 0
-3670 -3674 0
-3671 -3675 0
-3672 -3676 0
-3669 -5213 0
-3670 -5214 0
-3671 -5215 0
-3672 -5216 0
-3669 -4717 0
-3670 -4718 0
-3671 -4719 0
-3672 -4720 0
-3669 -5229 0
-3670 -5230 0
-3671 -5231 0
-3672 -5232 0
-3669 -4729 0
-3670 -4730 0
-3671 -4731 0
-3672 -4732 0
-3669 -4437 0
-3670 -4438 0
-3671 -4439 0
-3672 -4440 0
-3669 -5461 0
-3670 -5462 0
-3671 -5463 0
-3672 -5464 0
-3669 -4561 0
-3670 -4562 0
-3671 -4563 0
-3672 -4564 0
-3669 -4589 0
-3670 -4590 0
-3671 -4591 0
-3672 -4592 0
-3673 -6077 0
-3674 -6078 0
-3675 -6079 0
-3676 -6080 0
-3673 -4673 0
-3674 -4674 0
-3675 -4675 0
-3676 -4676 0
-3673 -4565 0
-3674 -4566 0
-3675 -4567 0
-3676 -4568 0
-3673 -3697 0
-3674 -3698 0
-3675 -3699 0
-3676 -3700 0
-3673 -4605 0
-3674 -4606 0
-3675 -4607 0
-3676 -4608 0
-3677 -4365 0
-3678 -4366 0
-3679 -4367 0
-3680 -4368 0
-3677 -5401 0
-3678 -5402 0
-3679 -5403 0
-3680 -5404 0
-3677 -4645 0
-3678 -4646 0
-3679 -4647 0
-3680 -4648 0
-3677 -5805 0
-3678 -5806 0
-3679 -5807 0
-3680 -5808 0
-3677 -4693 0
-3678 -4694 0
-3679 -4695 0
-3680 -4696 0
-3677 -5849 0
-3678 -5850 0
-3679 -5851 0
-3680 -5852 0
-3677 -5233 0
-3678 -5234 0
-3679 -5235 0
-3680 -5236 0
-3681 -3685 0
-3682 -3686 0
-3683 -3687 0
-3684 -3688 0
-3681 -4233 0
-3682 -4234 0
-3683 -4235 0
-3684 -4236 0
-3681 -4625 0
-3682 -4626 0
-3683 -4627 0
-3684 -4628 0
-3681 -5161 0
-3682 -5162 0
-3683 -5163 0
-3684 -5164 0
-3681 -4661 0
-3682 -4662 0
-3683 -4663 0
-3684 -4664 0
-3681 -5945 0
-3682 -5946 0
-3683 -5947 0
-3684 -5948 0
-3681 -3697 0
-3682 -3698 0
-3683 -3699 0
-3684 -3700 0
-3685 -4633 0
-3686 -4634 0
-3687 -4635 0
-3688 -4636 0
-3685 -5665 0
-3686 -5666 0
-3687 -5667 0
-3688 -5668 0
-3685 -4673 0
-3686 -4674 0
-3687 -4675 0
-3688 -4676 0
-3685 -3701 0
-3686 -3702 0
-3687 -3703 0
-3688 -3704 0
-3685 -4241 0
-3686 -4242 0
-3687 -4243 0
-3688 -4244 0
-3685 -5309 0
-3686 -5310 0
-3687 -5311 0
-3688 -5312 0
-3685 -5321 0
-3686 -5322 0
-3687 -5323 0
-3688 -5324 0
-3685 -5941 0
-3686 -5942 0
-3687 -5943 0
-3688 -5944 0
-3685 -4473 0
-3686 -4474 0
-3687 -4475 0
-3688 -4476 0
-3689 -3693 0
-3690 -3694 0
-3691 -3695 0
-3692 -3696 0
-3689 -4661 0
-3690 -4662 0
-3691 -4663 0
-3692 -4664 0
-3689 -5357 0
-3690 -5358 0
-3691 -5359 0
-3692 -5360 0
-3689 -5485 0
-3690 -5486 0
-3691 -5487 0
-3692 -5488 0
-3689 -4561 0
-3690 -4562 0
-3691 -4563 0
-3692 -4564 0
-3689 -5213 0
-3690 -5214 0
-3691 -5215 0
-3692 -5216 0
-3689 -4729 0
-3690 -4730 0
-3691 -4731 0
-3692 -4732 0
-3693 -4657 0
-3694 -4658 0
-3695 -4659 0
-3696 -4660 0
-3693 -4673 0
-3694 -4674 0
-3695 -4675 0
-3696 -4676 0
-3693 -4565 0
-3694 -4566 0
-3695 -4567 0
-3696 -4568 0
-3693 -5209 0
-3694 -5210 0
-3695 -5211 0
-3696 -5212 0
-3693 -5361 0
-3694 -5362 0
-3695 -5363 0
-3696 -5364 0
-3693 -3697 0
-3694 -3698 0
-3695 -3699 0
-3696 -3700 0
-3693 -5489 0
-3694 -5490 0
-3695 -5491 0
-3696 -5492 0
-3697 -4661 0
-3698 -4662 0
-3699 -4663 0
-3700 -4664 0
-3697 -4677 0
-3698 -4678 0
-3699 -4679 0
-3700 -4680 0
-3697 -4693 0
-3698 -4694 0
-3699 -4695 0
-3700 -4696 0
-3697 -5213 0
-3698 -5214 0
-3699 -5215 0
-3700 -5216 0
-3697 -5229 0
-3698 -5230 0
-3699 -5231 0
-3700 -5232 0
-3697 -3701 0
-3698 -3702 0
-3699 -3703 0
-3700 -3704 0
-3697 -4729 0
-3698 -4730 0
-3699 -4731 0
-3700 -4732 0
-3697 -4265 0
-3698 -4266 0
-3699 -4267 0
-3700 -4268 0
-3697 -5357 0
-3698 -5358 0
-3699 -5359 0
-3700 -5360 0
-3697 -4493 0
-3698 -4494 0
-3699 -4495 0
-3700 -4496 0
-3697 -6073 0
-3698 -6074 0
-3699 -6075 0
-3700 -6076 0
-3697 -4561 0
-3698 -4562 0
-3699 -4563 0
-3700 -4564 0
-3701 -4613 0
-3702 -4614 0
-3703 -4615 0
-3704 -4616 0
-3701 -4269 0
-3702 -4270 0
-3703 -4271 0
-3704 -4272 0
-3701 -3773 0
-3702 -3774 0
-3703 -3775 0
-3704 -3776 0
-3701 -4673 0
-3702 -4674 0
-3703 -4675 0
-3704 -4676 0
-3701 -4565 0
-3702 -4566 0
-3703 -4567 0
-3704 -4568 0
-3701 -4697 0
-3702 -4698 0
-3703 -4699 0
-3704 -4700 0
-3701 -5361 0
-3702 -5362 0
-3703 -5363 0
-3704 -5364 0
-3705 -3713 0
-3706 -3714 0
-3707 -3715 0
-3708 -3716 0
-3705 -4869 0
-3706 -4870 0
-3707 -4871 0
-3708 -4872 0
-3705 -4881 0
-3706 -4882 0
-3707 -4883 0
-3708 -4884 0
-3705 -5281 0
-3706 -5282 0
-3707 -5283 0
-3708 -5284 0
-3705 -5645 0
-3706 -5646 0
-3707 -5647 0
-3708 -5648 0
-3705 -3709 0
-3706 -3710 0
-3707 -3711 0
-3708 -3712 0
-3709 -3717 0
-3710 -3718 0
-3711 -3719 0
-3712 -3720 0
-3709 -4873 0
-3710 -4874 0
-3711 -4875 0
-3712 -4876 0
-3709 -4885 0
-3710 -4886 0
-3711 -4887 0
-3712 -4888 0
-3713 -3717 0
-3714 -3718 0
-3715 -3719 0
-3716 -3720 0
-3713 -4881 0
-3714 -4882 0
-3715 -4883 0
-3716 -4884 0
-3713 -5649 0
-3714 -5650 0
-3715 -5651 0
-3716 -5652 0
-3713 -4893 0
-3714 -4894 0
-3715 -4895 0
-3716 -4896 0
-3713 -5037 0
-3714 -5038 0
-3715 -5039 0
-3716 -5040 0
-3717 -4885 0
-3718 -4886 0
-3719 -4887 0
-3720 -4888 0
-3717 -4897 0
-3718 -4898 0
-3719 -4899 0
-3720 -4900 0
-3721 -3725 0
-3722 -3726 0
-3723 -3727 0
-3724 -3728 0
-3721 -4769 0
-3722 -4770 0
-3723 -4771 0
-3724 -4772 0
-3721 -5353 0
-3722 -5354 0
-3723 -5355 0
-3724 -5356 0
-3721 -4941 0
-3722 -4942 0
-3723 -4943 0
-3724 -4944 0
-3721 -4949 0
-3722 -4950 0
-3723 -4951 0
-3724 -4952 0
-3721 -6105 0
-3722 -6106 0
-3723 -6107 0
-3724 -6108 0
-3725 -4757 0
-3726 -4758 0
-3727 -4759 0
-3728 -4760 0
-3725 -4949 0
-3726 -4950 0
-3727 -4951 0
-3728 -4952 0
-3725 -5337 0
-3726 -5338 0
-3727 -5339 0
-3728 -5340 0
-3725 -4957 0
-3726 -4958 0
-3727 -4959 0
-3728 -4960 0
-3729 -3853 0
-3730 -3854 0
-3731 -3855 0
-3732 -3856 0
-3729 -5261 0
-3730 -5262 0
-3731 -5263 0
-3732 -5264 0
-3729 -5021 0
-3730 -5022 0
-3731 -5023 0
-3732 -5024 0
-3729 -3749 0
-3730 -3750 0
-3731 -3751 0
-3732 -3752 0
-3729 -4805 0
-3730 -4806 0
-3731 -4807 0
-3732 -4808 0
-3729 -3825 0
-3730 -3826 0
-3731 -3827 0
-3732 -3828 0
-3733 -5265 0
-3734 -5266 0
-3735 -5267 0
-3736 -5268 0
-3733 -3865 0
-3734 -3866 0
-3735 -3867 0
-3736 -3868 0
-3733 -5945 0
-3734 -5946 0
-3735 -5947 0
-3736 -5948 0
-3733 -4813 0
-3734 -4814 0
-3735 -4815 0
-3736 -4816 0
-3733 -3825 0
-3734 -3826 0
-3735 -3827 0
-3736 -3828 0
-3737 -3853 0
-3738 -3854 0
-3739 -3855 0
-3740 -3856 0
-3737 -4837 0
-3738 -4838 0
-3739 -4839 0
-3740 -4840 0
-3737 -3753 0
-3738 -3754 0
-3739 -3755 0
-3740 -3756 0
-3737 -5045 0
-3738 -5046 0
-3739 -5047 0
-3740 -5048 0
-3737 -4805 0
-3738 -4806 0
-3739 -4807 0
-3740 -4808 0
-3737 -5581 0
-3738 -5582 0
-3739 -5583 0
-3740 -5584 0
-3741 -3865 0
-3742 -3866 0
-3743 -3867 0
-3744 -3868 0
-3741 -5945 0
-3742 -5946 0
-3743 -5947 0
-3744 -5948 0
-3741 -4813 0
-3742 -4814 0
-3743 -4815 0
-3744 -4816 0
-3741 -5197 0
-3742 -5198 0
-3743 -5199 0
-3744 -5200 0
-3741 -4821 0
-3742 -4822 0
-3743 -4823 0
-3744 -4824 0
-3741 -5585 0
-3742 -5586 0
-3743 -5587 0
-3744 -5588 0
-3745 -3853 0
-3746 -3854 0
-3747 -3855 0
-3748 -3856 0
-3745 -3865 0
-3746 -3866 0
-3747 -3867 0
-3748 -3868 0
-3749 -3897 0
-3750 -3898 0
-3751 -3899 0
-3752 -3900 0
-3749 -4797 0
-3750 -4798 0
-3751 -4799 0
-3752 -4800 0
-3749 -5433 0
-3750 -5434 0
-3751 -5435 0
-3752 -5436 0
-3749 -5565 0
-3750 -5566 0
-3751 -5567 0
-3752 -5568 0
-3749 -3917 0
-3750 -3918 0
-3751 -3919 0
-3752 -3920 0
-3749 -4825 0
-3750 -4826 0
-3751 -4827 0
-3752 -4828 0
-3749 -5093 0
-3750 -5094 0
-3751 -5095 0
-3752 -5096 0
-3753 -3761 0
-3754 -3762 0
-3755 -3763 0
-3756 -3764 0
-3753 -5313 0
-3754 -5314 0
-3755 -5315 0
-3756 -5316 0
-3753 -4833 0
-3754 -4834 0
-3755 -4835 0
-3756 -4836 0
-3753 -4873 0
-3754 -4874 0
-3755 -4875 0
-3756 -4876 0
-3753 -5445 0
-3754 -5446 0
-3755 -5447 0
-3756 -5448 0
-3753 -3917 0
-3754 -3918 0
-3755 -3919 0
-3756 -3920 0
-3753 -5601 0
-3754 -5602 0
-3755 -5603 0
-3756 -5604 0
-3753 -5097 0
-3754 -5098 0
-3755 -5099 0
-3756 -5100 0
-3757 -5645 0
-3758 -5646 0
-3759 -5647 0
-3760 -5648 0
-3757 -5793 0
-3758 -5794 0
-3759 -5795 0
-3760 -5796 0
-3757 -3761 0
-3758 -3762 0
-3759 -3763 0
-3760 -3764 0
-3757 -4881 0
-3758 -4882 0
-3759 -4883 0
-3760 -4884 0
-3757 -5453 0
-3758 -5454 0
-3759 -5455 0
-3760 -5456 0
-3757 -5589 0
-3758 -5590 0
-3759 -5591 0
-3760 -5592 0
-3757 -5105 0
-3758 -5106 0
-3759 -5107 0
-3760 -5108 0
-3761 -4197 0
-3762 -4198 0
-3763 -4199 0
-3764 -4200 0
-3761 -4769 0
-3762 -4770 0
-3763 -4771 0
-3764 -4772 0
-3761 -5325 0
-3762 -5326 0
-3763 -5327 0
-3764 -5328 0
-3761 -4885 0
-3762 -4886 0
-3763 -4887 0
-3764 -4888 0
-3761 -3905 0
-3762 -3906 0
-3763 -3907 0
-3764 -3908 0
-3761 -3925 0
-3762 -3926 0
-3763 -3927 0
-3764 -3928 0
-3761 -5989 0
-3762 -5990 0
-3763 -5991 0
-3764 -5992 0
-3761 -5069 0
-3762 -5070 0
-3763 -5071 0
-3764 -5072 0
-3761 -5593 0
-3762 -5594 0
-3763 -5595 0
-3764 -5596 0
-3765 -3877 0
-3766 -3878 0
-3767 -3879 0
-3768 -3880 0
-3765 -3785 0
-3766 -3786 0
-3767 -3787 0
-3768 -3788 0
-3765 -5097 0
-3766 -5098 0
-3767 -5099 0
-3768 -5100 0
-3765 -3833 0
-3766 -3834 0
-3767 -3835 0
-3768 -3836 0
-3769 -4233 0
-3770 -4234 0
-3771 -4235 0
-3772 -4236 0
-3769 -5133 0
-3770 -5134 0
-3771 -5135 0
-3772 -5136 0
-3769 -5897 0
-3770 -5898 0
-3771 -5899 0
-3772 -5900 0
-3769 -5917 0
-3770 -5918 0
-3771 -5919 0
-3772 -5920 0
-3769 -4561 0
-3770 -4562 0
-3771 -4563 0
-3772 -4564 0
-3769 -5353 0
-3770 -5354 0
-3771 -5355 0
-3772 -5356 0
-3769 -3957 0
-3770 -3958 0
-3771 -3959 0
-3772 -3960 0
-3773 -4949 0
-3774 -4950 0
-3775 -4951 0
-3776 -4952 0
-3773 -5609 0
-3774 -5610 0
-3775 -5611 0
-3776 -5612 0
-3777 -5517 0
-3778 -5518 0
-3779 -5519 0
-3780 -5520 0
-3777 -4881 0
-3778 -4882 0
-3779 -4883 0
-3780 -4884 0
-3777 -3781 0
-3778 -3782 0
-3779 -3783 0
-3780 -3784 0
-3777 -3793 0
-3778 -3794 0
-3779 -3795 0
-3780 -3796 0
-3777 -3833 0
-3778 -3834 0
-3779 -3835 0
-3780 -3836 0
-3781 -5137 0
-3782 -5138 0
-3783 -5139 0
-3784 -5140 0
-3781 -4885 0
-3782 -4886 0
-3783 -4887 0
-3784 -4888 0
-3781 -5521 0
-3782 -5522 0
-3783 -5523 0
-3784 -5524 0
-3781 -3797 0
-3782 -3798 0
-3783 -3799 0
-3784 -3800 0
-3781 -3965 0
-3782 -3966 0
-3783 -3967 0
-3784 -3968 0
-3785 -4741 0
-3786 -4742 0
-3787 -4743 0
-3788 -4744 0
-3785 -3853 0
-3786 -3854 0
-3787 -3855 0
-3788 -3856 0
-3785 -5161 0
-3786 -5162 0
-3787 -5163 0
-3788 -5164 0
-3785 -5289 0
-3786 -5290 0
-3787 -5291 0
-3788 -5292 0
-3785 -5805 0
-3786 -5806 0
-3787 -5807 0
-3788 -5808 0
-3785 -5621 0
-3786 -5622 0
-3787 -5623 0
-3788 -5624 0
-3789 -3977 0
-3790 -3978 0
-3791 -3979 0
-3792 -3980 0
-3789 -5901 0
-3790 -5902 0
-3791 -5903 0
-3792 -5904 0
-3789 -4893 0
-3790 -4894 0
-3791 -4895 0
-3792 -4896 0
-3789 -5157 0
-3790 -5158 0
-3791 -5159 0
-3792 -5160 0
-3789 -5169 0
-3790 -5170 0
-3791 -5171 0
-3792 -5172 0
-3789 -4925 0
-3790 -4926 0
-3791 -4927 0
-3792 -4928 0
-3789 -5297 0
-3790 -5298 0
-3791 -5299 0
-3792 -5300 0
-3789 -5813 0
-3790 -5814 0
-3791 -5815 0
-3792 -5816 0
-3789 -3797 0
-3790 -3798 0
-3791 -3799 0
-3792 -3800 0
-3793 -5165 0
-3794 -5166 0
-3795 -5167 0
-3796 -5168 0
-3793 -5705 0
-3794 -5706 0
-3795 -5707 0
-3796 -5708 0
-3793 -4745 0
-3794 -4746 0
-3795 -4747 0
-3796 -4748 0
-3793 -4785 0
-3794 -4786 0
-3795 -4787 0
-3796 -4788 0
-3793 -5301 0
-3794 -5302 0
-3795 -5303 0
-3796 -5304 0
-3793 -5821 0
-3794 -5822 0
-3795 -5823 0
-3796 -5824 0
-3793 -4809 0
-3794 -4810 0
-3795 -4811 0
-3796 -4812 0
-3793 -3797 0
-3794 -3798 0
-3795 -3799 0
-3796 -3800 0
-3793 -5381 0
-3794 -5382 0
-3795 -5383 0
-3796 -5384 0
-3793 -3865 0
-3794 -3866 0
-3795 -3867 0
-3796 -3868 0
-3793 -4901 0
-3794 -4902 0
-3795 -4903 0
-3796 -4904 0
-3793 -4933 0
-3794 -4934 0
-3795 -4935 0
-3796 -4936 0
-3793 -3973 0
-3794 -3974 0
-3795 -3975 0
-3796 -3976 0
-3793 -3985 0
-3794 -3986 0
-3795 -3987 0
-3796 -3988 0
-3797 -5385 0
-3798 -5386 0
-3799 -5387 0
-3800 -5388 0
-3797 -3989 0
-3798 -3990 0
-3799 -3991 0
-3800 -3992 0
-3797 -3869 0
-3798 -3870 0
-3799 -3871 0
-3800 -3872 0
-3797 -4905 0
-3798 -4906 0
-3799 -4907 0
-3800 -4908 0
-3797 -5169 0
-3798 -5170 0
-3799 -5171 0
-3800 -5172 0
-3797 -5177 0
-3798 -5178 0
-3799 -5179 0
-3800 -5180 0
-3801 -5637 0
-3802 -5638 0
-3803 -5639 0
-3804 -5640 0
-3801 -4881 0
-3802 -4882 0
-3803 -4883 0
-3804 -4884 0
-3801 -4769 0
-3802 -4770 0
-3803 -4771 0
-3804 -4772 0
-3801 -3805 0
-3802 -3806 0
-3803 -3807 0
-3804 -3808 0
-3801 -4941 0
-3802 -4942 0
-3803 -4943 0
-3804 -4944 0
-3801 -5353 0
-3802 -5354 0
-3803 -5355 0
-3804 -5356 0
-3805 -5625 0
-3806 -5626 0
-3807 -5627 0
-3808 -5628 0
-3805 -4757 0
-3806 -4758 0
-3807 -4759 0
-3808 -4760 0
-3805 -4893 0
-3806 -4894 0
-3807 -4895 0
-3808 -4896 0
-3805 -6013 0
-3806 -6014 0
-3807 -6015 0
-3808 -6016 0
-3805 -4949 0
-3806 -4950 0
-3807 -4951 0
-3808 -4952 0
-3805 -5337 0
-3806 -5338 0
-3807 -5339 0
-3808 -5340 0
-3805 -4973 0
-3806 -4974 0
-3807 -4975 0
-3808 -4976 0
-3809 -5637 0
-3810 -5638 0
-3811 -5639 0
-3812 -5640 0
-3809 -4881 0
-3810 -4882 0
-3811 -4883 0
-3812 -4884 0
-3809 -4005 0
-3810 -4006 0
-3811 -4007 0
-3812 -4008 0
-3809 -3885 0
-3810 -3886 0
-3811 -3887 0
-3812 -3888 0
-3809 -3813 0
-3810 -3814 0
-3811 -3815 0
-3812 -3816 0
-3813 -4885 0
-3814 -4886 0
-3815 -4887 0
-3816 -4888 0
-3813 -3997 0
-3814 -3998 0
-3815 -3999 0
-3816 -4000 0
-3813 -5153 0
-3814 -5154 0
-3815 -5155 0
-3816 -5156 0
-3813 -4009 0
-3814 -4010 0
-3815 -4011 0
-3816 -4012 0
-3813 -4797 0
-3814 -4798 0
-3815 -4799 0
-3816 -4800 0
-3813 -3833 0
-3814 -3834 0
-3815 -3835 0
-3816 -3836 0
-3817 -3853 0
-3818 -3854 0
-3819 -3855 0
-3820 -3856 0
-3817 -3821 0
-3818 -3822 0
-3819 -3823 0
-3820 -3824 0
-3817 -5525 0
-3818 -5526 0
-3819 -5527 0
-3820 -5528 0
-3817 -3893 0
-3818 -3894 0
-3819 -3895 0
-3820 -3896 0
-3817 -4017 0
-3818 -4018 0
-3819 -4019 0
-3820 -4020 0
-3817 -4789 0
-3818 -4790 0
-3819 -4791 0
-3820 -4792 0
-3817 -5953 0
-3818 -5954 0
-3819 -5955 0
-3820 -5956 0
-3817 -5829 0
-3818 -5830 0
-3819 -5831 0
-3820 -5832 0
-3821 -5649 0
-3822 -5650 0
-3823 -5651 0
-3824 -5652 0
-3821 -3825 0
-3822 -3826 0
-3823 -3827 0
-3824 -3828 0
-3821 -3833 0
-3822 -3834 0
-3823 -3835 0
-3824 -3836 0
-3821 -4877 0
-3822 -4878 0
-3823 -4879 0
-3824 -4880 0
-3821 -3857 0
-3822 -3858 0
-3823 -3859 0
-3824 -3860 0
-3821 -4917 0
-3822 -4918 0
-3823 -4919 0
-3824 -4920 0
-3821 -5981 0
-3822 -5982 0
-3823 -5983 0
-3824 -5984 0
-3821 -3949 0
-3822 -3950 0
-3823 -3951 0
-3824 -3952 0
-3821 -5529 0
-3822 -5530 0
-3823 -5531 0
-3824 -5532 0
-3821 -6101 0
-3822 -6102 0
-3823 -6103 0
-3824 -6104 0
-3825 -5197 0
-3826 -5198 0
-3827 -5199 0
-3828 -5200 0
-3825 -3829 0
-3826 -3830 0
-3827 -3831 0
-3828 -3832 0
-3825 -4881 0
-3826 -4882 0
-3827 -4883 0
-3828 -4884 0
-3825 -3897 0
-3826 -3898 0
-3827 -3899 0
-3828 -3900 0
-3825 -5985 0
-3826 -5986 0
-3827 -5987 0
-3828 -5988 0
-3825 -3953 0
-3826 -3954 0
-3827 -3955 0
-3828 -3956 0
-3825 -4013 0
-3826 -4014 0
-3827 -4015 0
-3828 -4016 0
-3825 -4021 0
-3826 -4022 0
-3827 -4023 0
-3828 -4024 0
-3825 -6105 0
-3826 -6106 0
-3827 -6107 0
-3828 -6108 0
-3829 -4885 0
-3830 -4886 0
-3831 -4887 0
-3832 -4888 0
-3829 -4925 0
-3830 -4926 0
-3831 -4927 0
-3832 -4928 0
-3829 -5181 0
-3830 -5182 0
-3831 -5183 0
-3832 -5184 0
-3829 -5949 0
-3830 -5950 0
-3831 -5951 0
-3832 -5952 0
-3829 -4341 0
-3830 -4342 0
-3831 -4343 0
-3832 -4344 0
-3833 -5833 0
-3834 -5834 0
-3835 -5835 0
-3836 -5836 0
-3833 -4817 0
-3834 -4818 0
-3835 -4819 0
-3836 -4820 0
-3833 -4873 0
-3834 -4874 0
-3835 -4875 0
-3836 -4876 0
-3833 -3865 0
-3834 -3866 0
-3835 -3867 0
-3836 -3868 0
-3833 -5401 0
-3834 -5402 0
-3835 -5403 0
-3836 -5404 0
-3833 -4905 0
-3834 -4906 0
-3835 -4907 0
-3836 -4908 0
-3833 -4929 0
-3834 -4930 0
-3835 -4931 0
-3836 -4932 0
-3833 -5957 0
-3834 -5958 0
-3835 -5959 0
-3836 -5960 0
-3833 -6009 0
-3834 -6010 0
-3835 -6011 0
-3836 -6012 0
-3833 -6017 0
-3834 -6018 0
-3835 -6019 0
-3836 -6020 0
-3833 -4029 0
-3834 -4030 0
-3835 -4031 0
-3836 -4032 0
-3837 -5401 0
-3838 -5402 0
-3839 -5403 0
-3840 -5404 0
-3837 -5657 0
-3838 -5658 0
-3839 -5659 0
-3840 -5660 0
-3837 -3905 0
-3838 -3906 0
-3839 -3907 0
-3840 -3908 0
-3837 -5201 0
-3838 -5202 0
-3839 -5203 0
-3840 -5204 0
-3837 -4349 0
-3838 -4350 0
-3839 -4351 0
-3840 -4352 0
-3841 -3845 0
-3842 -3846 0
-3843 -3847 0
-3844 -3848 0
-3841 -3853 0
-3842 -3854 0
-3843 -3855 0
-3844 -3856 0
-3841 -5661 0
-3842 -5662 0
-3843 -5663 0
-3844 -5664 0
-3841 -3909 0
-3842 -3910 0
-3843 -3911 0
-3844 -3912 0
-3841 -5205 0
-3842 -5206 0
-3843 -5207 0
-3844 -5208 0
-3845 -4097 0
-3846 -4098 0
-3847 -4099 0
-3848 -4100 0
-3845 -5665 0
-3846 -5666 0
-3847 -5667 0
-3848 -5668 0
-3845 -3857 0
-3846 -3858 0
-3847 -3859 0
-3848 -3860 0
-3845 -4025 0
-3846 -4026 0
-3847 -4027 0
-3848 -4028 0
-3845 -6125 0
-3846 -6126 0
-3847 -6127 0
-3848 -6128 0
-3849 -5509 0
-3850 -5510 0
-3851 -5511 0
-3852 -5512 0
-3849 -3853 0
-3850 -3854 0
-3851 -3855 0
-3852 -3856 0
-3849 -3913 0
-3850 -3914 0
-3851 -3915 0
-3852 -3916 0
-3849 -6089 0
-3850 -6090 0
-3851 -6091 0
-3852 -6092 0
-3849 -5209 0
-3850 -5210 0
-3851 -5211 0
-3852 -5212 0
-3853 -5641 0
-3854 -5642 0
-3855 -5643 0
-3856 -5644 0
-3853 -5669 0
-3854 -5670 0
-3855 -5671 0
-3856 -5672 0
-3853 -5205 0
-3854 -5206 0
-3855 -5207 0
-3856 -5208 0
-3853 -5213 0
-3854 -5214 0
-3855 -5215 0
-3856 -5216 0
-3853 -4741 0
-3854 -4742 0
-3855 -4743 0
-3856 -4744 0
-3853 -4745 0
-3854 -4746 0
-3855 -4747 0
-3856 -4748 0
-3853 -4753 0
-3854 -4754 0
-3855 -4755 0
-3856 -4756 0
-3853 -4765 0
-3854 -4766 0
-3855 -4767 0
-3856 -4768 0
-3853 -4769 0
-3854 -4770 0
-3855 -4771 0
-3856 -4772 0
-3853 -4793 0
-3854 -4794 0
-3855 -4795 0
-3856 -4796 0
-3853 -4841 0
-3854 -4842 0
-3855 -4843 0
-3856 -4844 0
-3853 -3857 0
-3854 -3858 0
-3855 -3859 0
-3856 -3860 0
-3853 -3861 0
-3854 -3862 0
-3855 -3863 0
-3856 -3864 0
-3853 -3877 0
-3854 -3878 0
-3855 -3879 0
-3856 -3880 0
-3853 -4913 0
-3854 -4914 0
-3855 -4915 0
-3856 -4916 0
-3853 -5953 0
-3854 -5954 0
-3855 -5955 0
-3856 -5956 0
-3853 -4937 0
-3854 -4938 0
-3855 -4939 0
-3856 -4940 0
-3853 -3917 0
-3854 -3918 0
-3855 -3919 0
-3856 -3920 0
-3853 -5961 0
-3854 -5962 0
-3855 -5963 0
-3856 -5964 0
-3853 -4969 0
-3854 -4970 0
-3855 -4971 0
-3856 -4972 0
-3853 -5509 0
-3854 -5510 0
-3855 -5511 0
-3856 -5512 0
-3853 -5009 0
-3854 -5010 0
-3855 -5011 0
-3856 -5012 0
-3853 -5513 0
-3854 -5514 0
-3855 -5515 0
-3856 -5516 0
-3853 -5533 0
-3854 -5534 0
-3855 -5535 0
-3856 -5536 0
-3853 -5553 0
-3854 -5554 0
-3855 -5555 0
-3856 -5556 0
-3853 -4021 0
-3854 -4022 0
-3855 -4023 0
-3856 -4024 0
-3853 -4033 0
-3854 -4034 0
-3855 -4035 0
-3856 -4036 0
-3853 -5581 0
-3854 -5582 0
-3855 -5583 0
-3856 -5584 0
-3853 -4049 0
-3854 -4050 0
-3855 -4051 0
-3856 -4052 0
-3857 -5645 0
-3858 -5646 0
-3859 -5647 0
-3860 -5648 0
-3857 -5217 0
-3858 -5218 0
-3859 -5219 0
-3860 -5220 0
-3857 -5353 0
-3858 -5354 0
-3859 -5355 0
-3860 -5356 0
-3857 -4365 0
-3858 -4366 0
-3859 -4367 0
-3860 -4368 0
-3857 -3865 0
-3858 -3866 0
-3859 -3867 0
-3860 -3868 0
-3857 -4941 0
-3858 -4942 0
-3859 -4943 0
-3860 -4944 0
-3857 -3921 0
-3858 -3922 0
-3859 -3923 0
-3860 -3924 0
-3857 -5513 0
-3858 -5514 0
-3859 -5515 0
-3860 -5516 0
-3857 -4037 0
-3858 -4038 0
-3859 -4039 0
-3860 -4040 0
-3857 -4053 0
-3858 -4054 0
-3859 -4055 0
-3860 -4056 0
-3857 -6109 0
-3858 -6110 0
-3859 -6111 0
-3860 -6112 0
-3861 -5213 0
-3862 -5214 0
-3863 -5215 0
-3864 -5216 0
-3861 -5841 0
-3862 -5842 0
-3863 -5843 0
-3864 -5844 0
-3861 -3865 0
-3862 -3866 0
-3863 -3867 0
-3864 -3868 0
-3861 -4945 0
-3862 -4946 0
-3863 -4947 0
-3864 -4948 0
-3861 -3925 0
-3862 -3926 0
-3863 -3927 0
-3864 -3928 0
-3861 -4981 0
-3862 -4982 0
-3863 -4983 0
-3864 -4984 0
-3861 -5517 0
-3862 -5518 0
-3863 -5519 0
-3864 -5520 0
-3861 -6069 0
-3862 -6070 0
-3863 -6071 0
-3864 -6072 0
-3861 -5561 0
-3862 -5562 0
-3863 -5563 0
-3864 -5564 0
-3865 -5649 0
-3866 -5650 0
-3867 -5651 0
-3868 -5652 0
-3865 -5217 0
-3866 -5218 0
-3867 -5219 0
-3868 -5220 0
-3865 -5229 0
-3866 -5230 0
-3867 -5231 0
-3868 -5232 0
-3865 -4745 0
-3866 -4746 0
-3867 -4747 0
-3868 -4748 0
-3865 -4749 0
-3866 -4750 0
-3867 -4751 0
-3868 -4752 0
-3865 -4757 0
-3866 -4758 0
-3867 -4759 0
-3868 -4760 0
-3865 -4765 0
-3866 -4766 0
-3867 -4767 0
-3868 -4768 0
-3865 -4801 0
-3866 -4802 0
-3867 -4803 0
-3868 -4804 0
-3865 -4845 0
-3866 -4846 0
-3867 -4847 0
-3868 -4848 0
-3865 -3869 0
-3866 -3870 0
-3867 -3871 0
-3868 -3872 0
-3865 -3873 0
-3866 -3874 0
-3867 -3875 0
-3868 -3876 0
-3865 -3881 0
-3866 -3882 0
-3867 -3883 0
-3868 -3884 0
-3865 -4909 0
-3866 -4910 0
-3867 -4911 0
-3868 -4912 0
-3865 -4917 0
-3866 -4918 0
-3867 -4919 0
-3868 -4920 0
-3865 -5957 0
-3866 -5958 0
-3867 -5959 0
-3868 -5960 0
-3865 -5965 0
-3866 -5966 0
-3867 -5967 0
-3868 -5968 0
-3865 -5969 0
-3866 -5970 0
-3867 -5971 0
-3868 -5972 0
-3865 -3929 0
-3866 -3930 0
-3867 -3931 0
-3868 -3932 0
-3865 -4949 0
-3866 -4950 0
-3867 -4951 0
-3868 -4952 0
-3865 -4973 0
-3866 -4974 0
-3867 -4975 0
-3868 -4976 0
-3865 -5517 0
-3866 -5518 0
-3867 -5519 0
-3868 -5520 0
-3865 -5521 0
-3866 -5522 0
-3867 -5523 0
-3868 -5524 0
-3865 -5017 0
-3866 -5018 0
-3867 -5019 0
-3868 -5020 0
-3865 -5537 0
-3866 -5538 0
-3867 -5539 0
-3868 -5540 0
-3865 -4021 0
-3866 -4022 0
-3867 -4023 0
-3868 -4024 0
-3865 -4045 0
-3866 -4046 0
-3867 -4047 0
-3868 -4048 0
-3865 -5585 0
-3866 -5586 0
-3867 -5587 0
-3868 -5588 0
-3865 -4057 0
-3866 -4058 0
-3867 -4059 0
-3868 -4060 0
-3869 -5521 0
-3870 -5522 0
-3871 -5523 0
-3872 -5524 0
-3869 -4953 0
-3870 -4954 0
-3871 -4955 0
-3872 -4956 0
-3869 -5221 0
-3870 -5222 0
-3871 -5223 0
-3872 -5224 0
-3873 -6017 0
-3874 -6018 0
-3875 -6019 0
-3876 -6020 0
-3873 -4905 0
-3874 -4906 0
-3875 -4907 0
-3876 -4908 0
-3873 -5229 0
-3874 -5230 0
-3875 -5231 0
-3876 -5232 0
-3873 -4957 0
-3874 -4958 0
-3875 -4959 0
-3876 -4960 0
-3877 -5661 0
-3878 -5662 0
-3879 -5663 0
-3880 -5664 0
-3877 -5673 0
-3878 -5674 0
-3879 -5675 0
-3880 -5676 0
-3877 -5849 0
-3878 -5850 0
-3879 -5851 0
-3880 -5852 0
-3877 -5961 0
-3878 -5962 0
-3879 -5963 0
-3880 -5964 0
-3877 -3933 0
-3878 -3934 0
-3879 -3935 0
-3880 -3936 0
-3877 -4977 0
-3878 -4978 0
-3879 -4979 0
-3880 -4980 0
-3877 -5025 0
-3878 -5026 0
-3879 -5027 0
-3880 -5028 0
-3881 -5965 0
-3882 -5966 0
-3883 -5967 0
-3884 -5968 0
-3881 -4965 0
-3882 -4966 0
-3883 -4967 0
-3884 -4968 0
-3881 -5365 0
-3882 -5366 0
-3883 -5367 0
-3884 -5368 0
-3885 -4969 0
-3886 -4970 0
-3887 -4971 0
-3888 -4972 0
-3885 -5425 0
-3886 -5426 0
-3887 -5427 0
-3888 -5428 0
-3885 -5685 0
-3886 -5686 0
-3887 -5687 0
-3888 -5688 0
-3885 -3901 0
-3886 -3902 0
-3887 -3903 0
-3888 -3904 0
-3885 -4929 0
-3886 -4930 0
-3887 -4931 0
-3888 -4932 0
-3885 -5057 0
-3886 -5058 0
-3887 -5059 0
-3888 -5060 0
-3885 -5205 0
-3886 -5206 0
-3887 -5207 0
-3888 -5208 0
-3885 -4841 0
-3886 -4842 0
-3887 -4843 0
-3888 -4844 0
-3889 -5657 0
-3890 -5658 0
-3891 -5659 0
-3892 -5660 0
-3889 -4845 0
-3890 -4846 0
-3891 -4847 0
-3892 -4848 0
-3889 -4973 0
-3890 -4974 0
-3891 -4975 0
-3892 -4976 0
-3889 -5437 0
-3890 -5438 0
-3891 -5439 0
-3892 -5440 0
-3889 -5217 0
-3890 -5218 0
-3891 -5219 0
-3892 -5220 0
-3893 -6025 0
-3894 -6026 0
-3895 -6027 0
-3896 -6028 0
-3893 -3901 0
-3894 -3902 0
-3895 -3903 0
-3896 -3904 0
-3893 -3917 0
-3894 -3918 0
-3895 -3919 0
-3896 -3920 0
-3893 -4941 0
-3894 -4942 0
-3895 -4943 0
-3896 -4944 0
-3893 -5593 0
-3894 -5594 0
-3895 -5595 0
-3896 -5596 0
-3893 -5973 0
-3894 -5974 0
-3895 -5975 0
-3896 -5976 0
-3897 -5033 0
-3898 -5034 0
-3899 -5035 0
-3900 -5036 0
-3897 -4929 0
-3898 -4930 0
-3899 -4931 0
-3900 -4932 0
-3897 -5441 0
-3898 -5442 0
-3899 -5443 0
-3900 -5444 0
-3897 -5449 0
-3898 -5450 0
-3899 -5451 0
-3900 -5452 0
-3897 -4973 0
-3898 -4974 0
-3899 -4975 0
-3900 -4976 0
-3897 -5241 0
-3898 -5242 0
-3899 -5243 0
-3900 -5244 0
-3901 -4129 0
-3902 -4130 0
-3903 -4131 0
-3904 -4132 0
-3901 -5677 0
-3902 -5678 0
-3903 -5679 0
-3904 -5680 0
-3901 -5453 0
-3902 -5454 0
-3903 -5455 0
-3904 -5456 0
-3901 -3925 0
-3902 -3926 0
-3903 -3927 0
-3904 -3928 0
-3901 -4949 0
-3902 -4950 0
-3903 -4951 0
-3904 -4952 0
-3901 -4977 0
-3902 -4978 0
-3903 -4979 0
-3904 -4980 0
-3901 -5001 0
-3902 -5002 0
-3903 -5003 0
-3904 -5004 0
-3901 -3985 0
-3902 -3986 0
-3903 -3987 0
-3904 -3988 0
-3901 -5037 0
-3902 -5038 0
-3903 -5039 0
-3904 -5040 0
-3905 -4429 0
-3906 -4430 0
-3907 -4431 0
-3908 -4432 0
-3905 -3941 0
-3906 -3942 0
-3907 -3943 0
-3908 -3944 0
-3905 -4085 0
-3906 -4086 0
-3907 -4087 0
-3908 -4088 0
-3909 -5261 0
-3910 -5262 0
-3911 -5263 0
-3912 -5264 0
-3909 -5733 0
-3910 -5734 0
-3911 -5735 0
-3912 -5736 0
-3909 -3917 0
-3910 -3918 0
-3911 -3919 0
-3912 -3920 0
-3909 -6001 0
-3910 -6002 0
-3911 -6003 0
-3912 -6004 0
-3909 -5245 0
-3910 -5246 0
-3911 -5247 0
-3912 -5248 0
-3913 -5525 0
-3914 -5526 0
-3915 -5527 0
-3916 -5528 0
-3913 -3917 0
-3914 -3918 0
-3915 -3919 0
-3916 -3920 0
-3913 -5737 0
-3914 -5738 0
-3915 -5739 0
-3916 -5740 0
-3913 -5869 0
-3914 -5870 0
-3915 -5871 0
-3916 -5872 0
-3913 -4085 0
-3914 -4086 0
-3915 -4087 0
-3916 -4088 0
-3917 -5689 0
-3918 -5690 0
-3919 -5691 0
-3920 -5692 0
-3917 -5693 0
-3918 -5694 0
-3919 -5695 0
-3920 -5696 0
-3917 -4089 0
-3918 -4090 0
-3919 -4091 0
-3920 -4092 0
-3917 -5245 0
-3918 -5246 0
-3919 -5247 0
-3920 -5248 0
-3917 -5249 0
-3918 -5250 0
-3919 -5251 0
-3920 -5252 0
-3917 -4753 0
-3918 -4754 0
-3919 -4755 0
-3920 -4756 0
-3917 -4757 0
-3918 -4758 0
-3919 -4759 0
-3920 -4760 0
-3917 -4761 0
-3918 -4762 0
-3919 -4763 0
-3920 -4764 0
-3917 -4773 0
-3918 -4774 0
-3919 -4775 0
-3920 -4776 0
-3917 -4789 0
-3918 -4790 0
-3919 -4791 0
-3920 -4792 0
-3917 -4837 0
-3918 -4838 0
-3919 -4839 0
-3920 -4840 0
-3917 -4849 0
-3918 -4850 0
-3919 -4851 0
-3920 -4852 0
-3917 -3921 0
-3918 -3922 0
-3919 -3923 0
-3920 -3924 0
-3917 -3925 0
-3918 -3926 0
-3919 -3927 0
-3920 -3928 0
-3917 -5973 0
-3918 -5974 0
-3919 -5975 0
-3920 -5976 0
-3917 -3933 0
-3918 -3934 0
-3919 -3935 0
-3920 -3936 0
-3917 -4961 0
-3918 -4962 0
-3919 -4963 0
-3920 -4964 0
-3917 -5977 0
-3918 -5978 0
-3919 -5979 0
-3920 -5980 0
-3917 -3945 0
-3918 -3946 0
-3919 -3947 0
-3920 -3948 0
-3917 -5485 0
-3918 -5486 0
-3919 -5487 0
-3920 -5488 0
-3917 -4985 0
-3918 -4986 0
-3919 -4987 0
-3920 -4988 0
-3917 -4997 0
-3918 -4998 0
-3919 -4999 0
-3920 -5000 0
-3917 -5525 0
-3918 -5526 0
-3919 -5527 0
-3920 -5528 0
-3917 -5529 0
-3918 -5530 0
-3919 -5531 0
-3920 -5532 0
-3917 -5541 0
-3918 -5542 0
-3919 -5543 0
-3920 -5544 0
-3917 -5045 0
-3918 -5046 0
-3919 -5047 0
-3920 -5048 0
-3917 -5569 0
-3918 -5570 0
-3919 -5571 0
-3920 -5572 0
-3917 -5601 0
-3918 -5602 0
-3919 -5603 0
-3920 -5604 0
-3921 -5265 0
-3922 -5266 0
-3923 -5267 0
-3924 -5268 0
-3921 -5373 0
-3922 -5374 0
-3923 -5375 0
-3924 -5376 0
-3921 -4945 0
-3922 -4946 0
-3923 -4947 0
-3924 -4948 0
-3921 -5461 0
-3922 -5462 0
-3923 -5463 0
-3924 -5464 0
-3921 -3929 0
-3922 -3930 0
-3923 -3931 0
-3924 -3932 0
-3921 -5989 0
-3922 -5990 0
-3923 -5991 0
-3924 -5992 0
-3921 -5001 0
-3922 -5002 0
-3923 -5003 0
-3924 -5004 0
-3921 -3993 0
-3922 -3994 0
-3923 -3995 0
-3924 -3996 0
-3921 -5529 0
-3922 -5530 0
-3923 -5531 0
-3924 -5532 0
-3921 -6117 0
-3922 -6118 0
-3923 -6119 0
-3924 -6120 0
-3925 -5237 0
-3926 -5238 0
-3927 -5239 0
-3928 -5240 0
-3925 -5749 0
-3926 -5750 0
-3927 -5751 0
-3928 -5752 0
-3925 -5249 0
-3926 -5250 0
-3927 -5251 0
-3928 -5252 0
-3925 -5269 0
-3926 -5270 0
-3927 -5271 0
-3928 -5272 0
-3925 -4941 0
-3926 -4942 0
-3927 -4943 0
-3928 -4944 0
-3925 -3929 0
-3926 -3930 0
-3927 -3931 0
-3928 -3932 0
-3925 -4965 0
-3926 -4966 0
-3927 -4967 0
-3928 -4968 0
-3925 -5489 0
-3926 -5490 0
-3927 -5491 0
-3928 -5492 0
-3925 -4989 0
-3926 -4990 0
-3927 -4991 0
-3928 -4992 0
-3925 -6025 0
-3926 -6026 0
-3927 -6027 0
-3928 -6028 0
-3925 -5053 0
-3926 -5054 0
-3927 -5055 0
-3928 -5056 0
-3925 -4085 0
-3926 -4086 0
-3927 -4087 0
-3928 -4088 0
-3929 -4993 0
-3930 -4994 0
-3931 -4995 0
-3932 -4996 0
-3929 -4757 0
-3930 -4758 0
-3931 -4759 0
-3932 -4760 0
-3933 -5765 0
-3934 -5766 0
-3935 -5767 0
-3936 -5768 0
-3933 -5533 0
-3934 -5534 0
-3935 -5535 0
-3936 -5536 0
-3933 -4769 0
-3934 -4770 0
-3935 -4771 0
-3936 -4772 0
-3933 -5977 0
-3934 -5978 0
-3935 -5979 0
-3936 -5980 0
-3937 -5881 0
-3938 -5882 0
-3939 -5883 0
-3940 -5884 0
-3937 -3997 0
-3938 -3998 0
-3939 -3999 0
-3940 -4000 0
-3937 -4129 0
-3938 -4130 0
-3939 -4131 0
-3940 -4132 0
-3937 -4033 0
-3938 -4034 0
-3939 -4035 0
-3940 -4036 0
-3941 -5001 0
-3942 -5002 0
-3943 -5003 0
-3944 -5004 0
-3941 -4809 0
-3942 -4810 0
-3943 -4811 0
-3944 -4812 0
-3941 -4061 0
-3942 -4062 0
-3943 -4063 0
-3944 -4064 0
-3945 -4761 0
-3946 -4762 0
-3947 -4763 0
-3948 -4764 0
-3945 -5313 0
-3946 -5314 0
-3947 -5315 0
-3948 -5316 0
-3945 -4061 0
-3946 -4062 0
-3947 -4063 0
-3948 -4064 0
-3949 -3977 0
-3950 -3978 0
-3951 -3979 0
-3952 -3980 0
-3949 -4881 0
-3950 -4882 0
-3951 -4883 0
-3952 -4884 0
-3949 -5265 0
-3950 -5266 0
-3951 -5267 0
-3952 -5268 0
-3949 -5397 0
-3950 -5398 0
-3951 -5399 0
-3952 -5400 0
-3949 -5025 0
-3950 -5026 0
-3951 -5027 0
-3952 -5028 0
-3949 -3953 0
-3950 -3954 0
-3951 -3955 0
-3952 -3956 0
-3949 -5037 0
-3950 -5038 0
-3951 -5039 0
-3952 -5040 0
-3949 -5701 0
-3950 -5702 0
-3951 -5703 0
-3952 -5704 0
-3953 -4885 0
-3954 -4886 0
-3955 -4887 0
-3956 -4888 0
-3953 -4145 0
-3954 -4146 0
-3955 -4147 0
-3956 -4148 0
-3953 -4149 0
-3954 -4150 0
-3955 -4151 0
-3956 -4152 0
-3953 -5949 0
-3954 -5950 0
-3955 -5951 0
-3956 -5952 0
-3953 -5705 0
-3954 -5706 0
-3955 -5707 0
-3956 -5708 0
-3953 -5981 0
-3954 -5982 0
-3955 -5983 0
-3956 -5984 0
-3957 -4101 0
-3958 -4102 0
-3959 -4103 0
-3960 -4104 0
-3957 -5285 0
-3958 -5286 0
-3959 -5287 0
-3960 -5288 0
-3957 -4009 0
-3958 -4010 0
-3959 -4011 0
-3960 -4012 0
-3957 -5293 0
-3958 -5294 0
-3959 -5295 0
-3960 -5296 0
-3957 -4173 0
-3958 -4174 0
-3959 -4175 0
-3960 -4176 0
-3957 -5073 0
-3958 -5074 0
-3959 -5075 0
-3960 -5076 0
-3957 -5081 0
-3958 -5082 0
-3959 -5083 0
-3960 -5084 0
-3957 -6101 0
-3958 -6102 0
-3959 -6103 0
-3960 -6104 0
-3957 -3961 0
-3958 -3962 0
-3959 -3963 0
-3960 -3964 0
-3961 -4117 0
-3962 -4118 0
-3963 -4119 0
-3964 -4120 0
-3961 -4161 0
-3962 -4162 0
-3963 -4163 0
-3964 -4164 0
-3961 -4169 0
-3962 -4170 0
-3963 -4171 0
-3964 -4172 0
-3961 -4185 0
-3962 -4186 0
-3963 -4187 0
-3964 -4188 0
-3961 -4189 0
-3962 -4190 0
-3963 -4191 0
-3964 -4192 0
-3961 -5293 0
-3962 -5294 0
-3963 -5295 0
-3964 -5296 0
-3961 -5301 0
-3962 -5302 0
-3963 -5303 0
-3964 -5304 0
-3961 -4793 0
-3962 -4794 0
-3963 -4795 0
-3964 -4796 0
-3961 -4801 0
-3962 -4802 0
-3963 -4803 0
-3964 -4804 0
-3961 -5413 0
-3962 -5414 0
-3963 -5415 0
-3964 -5416 0
-3961 -4921 0
-3962 -4922 0
-3963 -4923 0
-3964 -4924 0
-3961 -5493 0
-3962 -5494 0
-3963 -5495 0
-3964 -5496 0
-3961 -3965 0
-3962 -3966 0
-3963 -3967 0
-3964 -3968 0
-3961 -3977 0
-3962 -3978 0
-3963 -3979 0
-3964 -3980 0
-3961 -4013 0
-3962 -4014 0
-3963 -4015 0
-3964 -4016 0
-3961 -5045 0
-3962 -5046 0
-3963 -5047 0
-3964 -5048 0
-3961 -5077 0
-3962 -5078 0
-3963 -5079 0
-3964 -5080 0
-3961 -5089 0
-3962 -5090 0
-3963 -5091 0
-3964 -5092 0
-3965 -4181 0
-3966 -4182 0
-3967 -4183 0
-3968 -4184 0
-3965 -4745 0
-3966 -4746 0
-3967 -4747 0
-3968 -4748 0
-3965 -5301 0
-3966 -5302 0
-3967 -5303 0
-3968 -5304 0
-3965 -4901 0
-3966 -4902 0
-3967 -4903 0
-3968 -4904 0
-3965 -5497 0
-3966 -5498 0
-3967 -5499 0
-3968 -5500 0
-3965 -3989 0
-3966 -3990 0
-3967 -3991 0
-3968 -3992 0
-3965 -5053 0
-3966 -5054 0
-3967 -5055 0
-3968 -5056 0
-3969 -3997 0
-3970 -3998 0
-3971 -3999 0
-3972 -4000 0
-3969 -5037 0
-3970 -5038 0
-3971 -5039 0
-3972 -5040 0
-3969 -4837 0
-3970 -4838 0
-3971 -4839 0
-3972 -4840 0
-3973 -4533 0
-3974 -4534 0
-3975 -4535 0
-3976 -4536 0
-3973 -4925 0
-3974 -4926 0
-3975 -4927 0
-3976 -4928 0
-3973 -5709 0
-3974 -5710 0
-3975 -5711 0
-3976 -5712 0
-3977 -5129 0
-3978 -5130 0
-3979 -5131 0
-3980 -5132 0
-3977 -5309 0
-3978 -5310 0
-3979 -5311 0
-3980 -5312 0
-3977 -5317 0
-3978 -5318 0
-3979 -5319 0
-3980 -5320 0
-3977 -4913 0
-3978 -4914 0
-3979 -4915 0
-3980 -4916 0
-3977 -4929 0
-3978 -4930 0
-3979 -4931 0
-3980 -4932 0
-3977 -5437 0
-3978 -5438 0
-3979 -5439 0
-3980 -5440 0
-3977 -5477 0
-3978 -5478 0
-3979 -5479 0
-3980 -5480 0
-3977 -3989 0
-3978 -3990 0
-3979 -3991 0
-3980 -3992 0
-3977 -3993 0
-3978 -3994 0
-3979 -3995 0
-3980 -3996 0
-3977 -4041 0
-3978 -4042 0
-3979 -4043 0
-3980 -4044 0
-3977 -5101 0
-3978 -5102 0
-3979 -5103 0
-3980 -5104 0
-3981 -3985 0
-3982 -3986 0
-3983 -3987 0
-3984 -3988 0
-3981 -4881 0
-3982 -4882 0
-3983 -4883 0
-3984 -4884 0
-3981 -5021 0
-3982 -5022 0
-3983 -5023 0
-3984 -5024 0
-3981 -4825 0
-3982 -4826 0
-3983 -4827 0
-3984 -4828 0
-3981 -5105 0
-3982 -5106 0
-3983 -5107 0
-3984 -5108 0
-3985 -4189 0
-3986 -4190 0
-3987 -4191 0
-3988 -4192 0
-3985 -4197 0
-3986 -4198 0
-3987 -4199 0
-3988 -4200 0
-3985 -5277 0
-3986 -5278 0
-3987 -5279 0
-3988 -5280 0
-3985 -5313 0
-3986 -5314 0
-3987 -5315 0
-3988 -5316 0
-3985 -5325 0
-3986 -5326 0
-3987 -5327 0
-3988 -5328 0
-3985 -4817 0
-3986 -4818 0
-3987 -4819 0
-3988 -4820 0
-3985 -4885 0
-3986 -4886 0
-3987 -4887 0
-3988 -4888 0
-3985 -3989 0
-3986 -3990 0
-3987 -3991 0
-3988 -3992 0
-3985 -5025 0
-3986 -5026 0
-3987 -5027 0
-3988 -5028 0
-3985 -4045 0
-3986 -4046 0
-3987 -4047 0
-3988 -4048 0
-3989 -4193 0
-3990 -4194 0
-3991 -4195 0
-3992 -4196 0
-3989 -4201 0
-3990 -4202 0
-3991 -4203 0
-3992 -4204 0
-3989 -5317 0
-3990 -5318 0
-3991 -5319 0
-3992 -5320 0
-3989 -5329 0
-3990 -5330 0
-3991 -5331 0
-3992 -5332 0
-3989 -4821 0
-3990 -4822 0
-3991 -4823 0
-3992 -4824 0
-3989 -4889 0
-3990 -4890 0
-3991 -4891 0
-3992 -4892 0
-3989 -5441 0
-3990 -5442 0
-3991 -5443 0
-3992 -5444 0
-3993 -5569 0
-3994 -5570 0
-3995 -5571 0
-3996 -5572 0
-3993 -4949 0
-3994 -4950 0
-3995 -4951 0
-3996 -4952 0
-3993 -5337 0
-3994 -5338 0
-3995 -5339 0
-3996 -5340 0
-3993 -5341 0
-3994 -5342 0
-3995 -5343 0
-3996 -5344 0
-3993 -4833 0
-3994 -4834 0
-3995 -4835 0
-3996 -4836 0
-3993 -5457 0
-3994 -5458 0
-3995 -5459 0
-3996 -5460 0
-3993 -5721 0
-3994 -5722 0
-3995 -5723 0
-3996 -5724 0
-3997 -4233 0
-3998 -4234 0
-3999 -4235 0
-4000 -4236 0
-3997 -5093 0
-3998 -5094 0
-3999 -5095 0
-4000 -5096 0
-3997 -5349 0
-3998 -5350 0
-3999 -5351 0
-4000 -5352 0
-3997 -4133 0
-3998 -4134 0
-3999 -4135 0
-4000 -4136 0
-3997 -4909 0
-3998 -4910 0
-3999 -4911 0
-4000 -4912 0
-3997 -5053 0
-3998 -5054 0
-3999 -5055 0
-4000 -5056 0
-4001 -5913 0
-4002 -5914 0
-4003 -5915 0
-4004 -5916 0
-4001 -4009 0
-4002 -4010 0
-4003 -4011 0
-4004 -4012 0
-4001 -5077 0
-4002 -5078 0
-4003 -5079 0
-4004 -5080 0
-4001 -4221 0
-4002 -4222 0
-4003 -4223 0
-4004 -4224 0
-4005 -4229 0
-4006 -4230 0
-4007 -4231 0
-4008 -4232 0
-4005 -5645 0
-4006 -5646 0
-4007 -5647 0
-4008 -5648 0
-4005 -4009 0
-4006 -4010 0
-4007 -4011 0
-4008 -4012 0
-4005 -4141 0
-4006 -4142 0
-4007 -4143 0
-4008 -4144 0
-4005 -4025 0
-4006 -4026 0
-4007 -4027 0
-4008 -4028 0
-4005 -5061 0
-4006 -5062 0
-4007 -5063 0
-4008 -5064 0
-4005 -4837 0
-4006 -4838 0
-4007 -4839 0
-4008 -4840 0
-4005 -4217 0
-4006 -4218 0
-4007 -4219 0
-4008 -4220 0
-4005 -5745 0
-4006 -5746 0
-4007 -5747 0
-4008 -5748 0
-4009 -4105 0
-4010 -4106 0
-4011 -4107 0
-4012 -4108 0
-4009 -5133 0
-4010 -5134 0
-4011 -5135 0
-4012 -5136 0
-4009 -5097 0
-4010 -5098 0
-4011 -5099 0
-4012 -5100 0
-4009 -5749 0
-4010 -5750 0
-4011 -5751 0
-4012 -5752 0
-4009 -4233 0
-4010 -4234 0
-4011 -4235 0
-4012 -4236 0
-4009 -5353 0
-4010 -5354 0
-4011 -5355 0
-4012 -5356 0
-4009 -5897 0
-4010 -5898 0
-4011 -5899 0
-4012 -5900 0
-4009 -5917 0
-4010 -5918 0
-4011 -5919 0
-4012 -5920 0
-4009 -4913 0
-4010 -4914 0
-4011 -4915 0
-4012 -4916 0
-4009 -4013 0
-4010 -4014 0
-4011 -4015 0
-4012 -4016 0
-4009 -5041 0
-4010 -5042 0
-4011 -5043 0
-4012 -5044 0
-4009 -4029 0
-4010 -4030 0
-4011 -4031 0
-4012 -4032 0
-4009 -5065 0
-4010 -5066 0
-4011 -5067 0
-4012 -5068 0
-4009 -4561 0
-4010 -4562 0
-4011 -4563 0
-4012 -4564 0
-4009 -5093 0
-4010 -5094 0
-4011 -5095 0
-4012 -5096 0
-4009 -4073 0
-4010 -4074 0
-4011 -4075 0
-4012 -4076 0
-4013 -5137 0
-4014 -5138 0
-4015 -5139 0
-4016 -5140 0
-4013 -4145 0
-4014 -4146 0
-4015 -4147 0
-4016 -4148 0
-4013 -4217 0
-4014 -4218 0
-4015 -4219 0
-4016 -4220 0
-4013 -4241 0
-4014 -4242 0
-4015 -4243 0
-4016 -4244 0
-4013 -4769 0
-4014 -4770 0
-4015 -4771 0
-4016 -4772 0
-4013 -4837 0
-4014 -4838 0
-4015 -4839 0
-4016 -4840 0
-4013 -5353 0
-4014 -5354 0
-4015 -5355 0
-4016 -5356 0
-4013 -4941 0
-4014 -4942 0
-4015 -4943 0
-4016 -4944 0
-4013 -6017 0
-4014 -6018 0
-4015 -6019 0
-4016 -6020 0
-4013 -5049 0
-4014 -5050 0
-4015 -5051 0
-4016 -5052 0
-4013 -4041 0
-4014 -4042 0
-4015 -4043 0
-4016 -4044 0
-4013 -4565 0
-4014 -4566 0
-4015 -4567 0
-4016 -4568 0
-4017 -5761 0
-4018 -5762 0
-4019 -5763 0
-4020 -5764 0
-4017 -5545 0
-4018 -5546 0
-4019 -5547 0
-4020 -5548 0
-4017 -4025 0
-4018 -4026 0
-4019 -4027 0
-4020 -4028 0
-4017 -4049 0
-4018 -4050 0
-4019 -4051 0
-4020 -4052 0
-4017 -5093 0
-4018 -5094 0
-4019 -5095 0
-4020 -5096 0
-4017 -6137 0
-4018 -6138 0
-4019 -6139 0
-4020 -6140 0
-4021 -5549 0
-4022 -5550 0
-4023 -5551 0
-4024 -5552 0
-4021 -4149 0
-4022 -4150 0
-4023 -4151 0
-4024 -4152 0
-4021 -4289 0
-4022 -4290 0
-4023 -4291 0
-4024 -4292 0
-4021 -5061 0
-4022 -5062 0
-4023 -5063 0
-4024 -5064 0
-4021 -5113 0
-4022 -5114 0
-4023 -5115 0
-4024 -5116 0
-4025 -5121 0
-4026 -5122 0
-4027 -5123 0
-4028 -5124 0
-4025 -5153 0
-4026 -5154 0
-4027 -5155 0
-4028 -5156 0
-4025 -5665 0
-4026 -5666 0
-4027 -5667 0
-4028 -5668 0
-4025 -4153 0
-4026 -4154 0
-4027 -4155 0
-4028 -4156 0
-4025 -5737 0
-4026 -5738 0
-4027 -5739 0
-4028 -5740 0
-4025 -5773 0
-4026 -5774 0
-4027 -5775 0
-4028 -5776 0
-4025 -4253 0
-4026 -4254 0
-4027 -4255 0
-4028 -4256 0
-4025 -4293 0
-4026 -4294 0
-4027 -4295 0
-4028 -4296 0
-4025 -5377 0
-4026 -5378 0
-4027 -5379 0
-4028 -5380 0
-4025 -5465 0
-4026 -5466 0
-4027 -5467 0
-4028 -5468 0
-4025 -6045 0
-4026 -6046 0
-4027 -6047 0
-4028 -6048 0
-4025 -4029 0
-4026 -4030 0
-4027 -4031 0
-4028 -4032 0
-4025 -4037 0
-4026 -4038 0
-4027 -4039 0
-4028 -4040 0
-4025 -5069 0
-4026 -5070 0
-4027 -5071 0
-4028 -5072 0
-4025 -4581 0
-4026 -4582 0
-4027 -4583 0
-4028 -4584 0
-4025 -6133 0
-4026 -6134 0
-4027 -6135 0
-4028 -6136 0
-4025 -6141 0
-4026 -6142 0
-4027 -6143 0
-4028 -6144 0
-4029 -5157 0
-4030 -5158 0
-4031 -5159 0
-4032 -5160 0
-4029 -5777 0
-4030 -5778 0
-4031 -5779 0
-4032 -5780 0
-4029 -4257 0
-4030 -4258 0
-4031 -4259 0
-4032 -4260 0
-4029 -5357 0
-4030 -5358 0
-4031 -5359 0
-4032 -5360 0
-4029 -5361 0
-4030 -5362 0
-4031 -5363 0
-4032 -5364 0
-4029 -5921 0
-4030 -5922 0
-4031 -5923 0
-4032 -5924 0
-4029 -4041 0
-4030 -4042 0
-4031 -4043 0
-4032 -4044 0
-4029 -5077 0
-4030 -5078 0
-4031 -5079 0
-4032 -5080 0
-4029 -4057 0
-4030 -4058 0
-4031 -4059 0
-4032 -4060 0
-4029 -6117 0
-4030 -6118 0
-4031 -6119 0
-4032 -6120 0
-4029 -5105 0
-4030 -5106 0
-4031 -5107 0
-4032 -5108 0
-4033 -5669 0
-4034 -5670 0
-4035 -5671 0
-4036 -5672 0
-4033 -5161 0
-4034 -5162 0
-4035 -5163 0
-4036 -5164 0
-4033 -5741 0
-4034 -5742 0
-4035 -5743 0
-4036 -5744 0
-4033 -5805 0
-4034 -5806 0
-4035 -5807 0
-4036 -5808 0
-4033 -4829 0
-4034 -4830 0
-4035 -4831 0
-4036 -4832 0
-4033 -5057 0
-4034 -5058 0
-4035 -5059 0
-4036 -5060 0
-4033 -4037 0
-4034 -4038 0
-4035 -4039 0
-4036 -4040 0
-4033 -4089 0
-4034 -4090 0
-4035 -4091 0
-4036 -4092 0
-4037 -5125 0
-4038 -5126 0
-4039 -5127 0
-4040 -5128 0
-4037 -5165 0
-4038 -5166 0
-4039 -5167 0
-4040 -5168 0
-4037 -5745 0
-4038 -5746 0
-4039 -5747 0
-4040 -5748 0
-4037 -5781 0
-4038 -5782 0
-4039 -5783 0
-4040 -5784 0
-4037 -5809 0
-4038 -5810 0
-4039 -5811 0
-4040 -5812 0
-4037 -5469 0
-4038 -5470 0
-4039 -5471 0
-4040 -5472 0
-4037 -4977 0
-4038 -4978 0
-4039 -4979 0
-4040 -4980 0
-4037 -5061 0
-4038 -5062 0
-4039 -5063 0
-4040 -5064 0
-4037 -4041 0
-4038 -4042 0
-4039 -4043 0
-4040 -4044 0
-4037 -4045 0
-4038 -4046 0
-4039 -4047 0
-4040 -4048 0
-4037 -4061 0
-4038 -4062 0
-4039 -4063 0
-4040 -4064 0
-4037 -5605 0
-4038 -5606 0
-4039 -5607 0
-4040 -5608 0
-4041 -4117 0
-4042 -4118 0
-4043 -4119 0
-4044 -4120 0
-4041 -5169 0
-4042 -5170 0
-4043 -5171 0
-4044 -5172 0
-4041 -5749 0
-4042 -5750 0
-4043 -5751 0
-4044 -5752 0
-4041 -4261 0
-4042 -4262 0
-4043 -4263 0
-4044 -4264 0
-4041 -5813 0
-4042 -5814 0
-4043 -5815 0
-4044 -5816 0
-4041 -5345 0
-4042 -5346 0
-4043 -5347 0
-4044 -5348 0
-4041 -5361 0
-4042 -5362 0
-4043 -5363 0
-4044 -5364 0
-4041 -5365 0
-4042 -5366 0
-4043 -5367 0
-4044 -5368 0
-4041 -5901 0
-4042 -5902 0
-4043 -5903 0
-4044 -5904 0
-4041 -5925 0
-4042 -5926 0
-4043 -5927 0
-4044 -5928 0
-4041 -4925 0
-4042 -4926 0
-4043 -4927 0
-4044 -4928 0
-4041 -4961 0
-4042 -4962 0
-4043 -4963 0
-4044 -4964 0
-4041 -5481 0
-4042 -5482 0
-4043 -5483 0
-4044 -5484 0
-4041 -4981 0
-4042 -4982 0
-4043 -4983 0
-4044 -4984 0
-4041 -5065 0
-4042 -5066 0
-4043 -5067 0
-4044 -5068 0
-4045 -5753 0
-4046 -5754 0
-4047 -5755 0
-4048 -5756 0
-4045 -5821 0
-4046 -5822 0
-4047 -5823 0
-4048 -5824 0
-4045 -4933 0
-4046 -4934 0
-4047 -4935 0
-4048 -4936 0
-4045 -5117 0
-4046 -5118 0
-4047 -5119 0
-4048 -5120 0
-4049 -5105 0
-4050 -5106 0
-4051 -5107 0
-4052 -5108 0
-4049 -4053 0
-4050 -4054 0
-4051 -4055 0
-4052 -4056 0
-4049 -5369 0
-4050 -5370 0
-4051 -5371 0
-4052 -5372 0
-4053 -5381 0
-4054 -5382 0
-4055 -5383 0
-4056 -5384 0
-4053 -6053 0
-4054 -6054 0
-4055 -6055 0
-4056 -6056 0
-4053 -4057 0
-4054 -4058 0
-4055 -4059 0
-4056 -4060 0
-4053 -4837 0
-4054 -4838 0
-4055 -4839 0
-4056 -4840 0
-4053 -5757 0
-4054 -5758 0
-4055 -5759 0
-4056 -5760 0
-4057 -5125 0
-4058 -5126 0
-4059 -5127 0
-4060 -5128 0
-4057 -5765 0
-4058 -5766 0
-4059 -5767 0
-4060 -5768 0
-4057 -4773 0
-4058 -4774 0
-4059 -4775 0
-4060 -4776 0
-4057 -5945 0
-4058 -5946 0
-4059 -5947 0
-4060 -5948 0
-4057 -6121 0
-4058 -6122 0
-4059 -6123 0
-4060 -6124 0
-4057 -5117 0
-4058 -5118 0
-4059 -5119 0
-4060 -5120 0
-4061 -5773 0
-4062 -5774 0
-4063 -5775 0
-4064 -5776 0
-4061 -6045 0
-4062 -6046 0
-4063 -6047 0
-4064 -6048 0
-4061 -6141 0
-4062 -6142 0
-4063 -6143 0
-4064 -6144 0
-4061 -5185 0
-4062 -5186 0
-4063 -5187 0
-4064 -5188 0
-4061 -5825 0
-4062 -5826 0
-4063 -5827 0
-4064 -5828 0
-4061 -5069 0
-4062 -5070 0
-4063 -5071 0
-4064 -5072 0
-4061 -4845 0
-4062 -4846 0
-4063 -4847 0
-4064 -4848 0
-4061 -4989 0
-4062 -4990 0
-4063 -4991 0
-4064 -4992 0
-4065 -4881 0
-4066 -4882 0
-4067 -4883 0
-4068 -4884 0
-4065 -5093 0
-4066 -5094 0
-4067 -5095 0
-4068 -5096 0
-4065 -4141 0
-4066 -4142 0
-4067 -4143 0
-4068 -4144 0
-4065 -5357 0
-4066 -5358 0
-4067 -5359 0
-4068 -5360 0
-4065 -4949 0
-4066 -4950 0
-4067 -4951 0
-4068 -4952 0
-4065 -5081 0
-4066 -5082 0
-4067 -5083 0
-4068 -5084 0
-4065 -5993 0
-4066 -5994 0
-4067 -5995 0
-4068 -5996 0
-4065 -5101 0
-4066 -5102 0
-4067 -5103 0
-4068 -5104 0
-4065 -4069 0
-4066 -4070 0
-4067 -4071 0
-4068 -4072 0
-4069 -4885 0
-4070 -4886 0
-4071 -4887 0
-4072 -4888 0
-4069 -4953 0
-4070 -4954 0
-4071 -4955 0
-4072 -4956 0
-4069 -5085 0
-4070 -5086 0
-4071 -5087 0
-4072 -5088 0
-4069 -4081 0
-4070 -4082 0
-4071 -4083 0
-4072 -4084 0
-4073 -5373 0
-4074 -5374 0
-4075 -5375 0
-4076 -5376 0
-4073 -5397 0
-4074 -5398 0
-4075 -5399 0
-4076 -5400 0
-4073 -4265 0
-4074 -4266 0
-4075 -4267 0
-4076 -4268 0
-4073 -5553 0
-4074 -5554 0
-4075 -5555 0
-4076 -5556 0
-4073 -4961 0
-4074 -4962 0
-4075 -4963 0
-4076 -4964 0
-4077 -4761 0
-4078 -4762 0
-4079 -4763 0
-4080 -4764 0
-4077 -5369 0
-4078 -5370 0
-4079 -5371 0
-4080 -5372 0
-4077 -5485 0
-4078 -5486 0
-4079 -5487 0
-4080 -5488 0
-4077 -4985 0
-4078 -4986 0
-4079 -4987 0
-4080 -4988 0
-4077 -4997 0
-4078 -4998 0
-4079 -4999 0
-4080 -5000 0
-4077 -6053 0
-4078 -6054 0
-4079 -6055 0
-4080 -6056 0
-4077 -5557 0
-4078 -5558 0
-4079 -5559 0
-4080 -5560 0
-4077 -5097 0
-4078 -5098 0
-4079 -5099 0
-4080 -5100 0
-4081 -4905 0
-4082 -4906 0
-4083 -4907 0
-4084 -4908 0
-4081 -5561 0
-4082 -5562 0
-4083 -5563 0
-4084 -5564 0
-4081 -5945 0
-4082 -5946 0
-4083 -5947 0
-4084 -5948 0
-4081 -4341 0
-4082 -4342 0
-4083 -4343 0
-4084 -4344 0
-4085 -4609 0
-4086 -4610 0
-4087 -4611 0
-4088 -4612 0
-4085 -5201 0
-4086 -5202 0
-4087 -5203 0
-4088 -5204 0
-4085 -4753 0
-4086 -4754 0
-4087 -4755 0
-4088 -4756 0
-4085 -4757 0
-4086 -4758 0
-4087 -4759 0
-4088 -4760 0
-4085 -4349 0
-4086 -4350 0
-4087 -4351 0
-4088 -4352 0
-4085 -5401 0
-4086 -5402 0
-4087 -5403 0
-4088 -5404 0
-4085 -5489 0
-4086 -5490 0
-4087 -5491 0
-4088 -5492 0
-4089 -6057 0
-4090 -6058 0
-4091 -6059 0
-4092 -6060 0
-4089 -5565 0
-4090 -5566 0
-4091 -5567 0
-4092 -5568 0
-4089 -5693 0
-4090 -5694 0
-4091 -5695 0
-4092 -5696 0
-4089 -5213 0
-4090 -5214 0
-4091 -5215 0
-4092 -5216 0
-4093 -4381 0
-4094 -4382 0
-4095 -4383 0
-4096 -4384 0
-4093 -4257 0
-4094 -4258 0
-4095 -4259 0
-4096 -4260 0
-4093 -4773 0
-4094 -4774 0
-4095 -4775 0
-4096 -4776 0
-4093 -5433 0
-4094 -5434 0
-4095 -5435 0
-4096 -5436 0
-4093 -4937 0
-4094 -4938 0
-4095 -4939 0
-4096 -4940 0
-4097 -4101 0
-4098 -4102 0
-4099 -4103 0
-4100 -4104 0
-4097 -4881 0
-4098 -4882 0
-4099 -4883 0
-4100 -4884 0
-4097 -5153 0
-4098 -5154 0
-4099 -5155 0
-4100 -5156 0
-4097 -5377 0
-4098 -5378 0
-4099 -5379 0
-4100 -5380 0
-4097 -4141 0
-4098 -4142 0
-4099 -4143 0
-4100 -4144 0
-4097 -4293 0
-4098 -4294 0
-4099 -4295 0
-4100 -4296 0
-4101 -4113 0
-4102 -4114 0
-4103 -4115 0
-4104 -4116 0
-4101 -4885 0
-4102 -4886 0
-4103 -4887 0
-4104 -4888 0
-4101 -5009 0
-4102 -5010 0
-4103 -5011 0
-4104 -5012 0
-4101 -5157 0
-4102 -5158 0
-4103 -5159 0
-4104 -5160 0
-4105 -4741 0
-4106 -4742 0
-4107 -4743 0
-4108 -4744 0
-4105 -4129 0
-4106 -4130 0
-4107 -4131 0
-4108 -4132 0
-4109 -4873 0
-4110 -4874 0
-4111 -4875 0
-4112 -4876 0
-4109 -5573 0
-4110 -5574 0
-4111 -5575 0
-4112 -5576 0
-4109 -5757 0
-4110 -5758 0
-4111 -5759 0
-4112 -5760 0
-4113 -4745 0
-4114 -4746 0
-4115 -4747 0
-4116 -4748 0
-4113 -5381 0
-4114 -5382 0
-4115 -5383 0
-4116 -5384 0
-4113 -5025 0
-4114 -5026 0
-4115 -5027 0
-4116 -5028 0
-4113 -4905 0
-4114 -4906 0
-4115 -4907 0
-4116 -4908 0
-4113 -5165 0
-4114 -5166 0
-4115 -5167 0
-4116 -5168 0
-4113 -5561 0
-4114 -5562 0
-4115 -5563 0
-4116 -5564 0
-4113 -4809 0
-4114 -4810 0
-4115 -4811 0
-4116 -4812 0
-4113 -4857 0
-4114 -4858 0
-4115 -4859 0
-4116 -4860 0
-4117 -4129 0
-4118 -4130 0
-4119 -4131 0
-4120 -4132 0
-4117 -6001 0
-4118 -6002 0
-4119 -6003 0
-4120 -6004 0
-4117 -5629 0
-4118 -5630 0
-4119 -5631 0
-4120 -5632 0
-4121 -5149 0
-4122 -5150 0
-4123 -5151 0
-4124 -5152 0
-4121 -4785 0
-4122 -4786 0
-4123 -4787 0
-4124 -4788 0
-4121 -4793 0
-4122 -4794 0
-4123 -4795 0
-4124 -4796 0
-4121 -4321 0
-4122 -4322 0
-4123 -4323 0
-4124 -4324 0
-4125 -6017 0
-4126 -6018 0
-4127 -6019 0
-4128 -6020 0
-4125 -5385 0
-4126 -5386 0
-4127 -5387 0
-4128 -5388 0
-4125 -5145 0
-4126 -5146 0
-4127 -5147 0
-4128 -5148 0
-4125 -5169 0
-4126 -5170 0
-4127 -5171 0
-4128 -5172 0
-4125 -5585 0
-4126 -5586 0
-4127 -5587 0
-4128 -5588 0
-4125 -4341 0
-4126 -4342 0
-4127 -4343 0
-4128 -4344 0
-4129 -4877 0
-4130 -4878 0
-4131 -4879 0
-4132 -4880 0
-4129 -4893 0
-4130 -4894 0
-4131 -4895 0
-4132 -4896 0
-4129 -4133 0
-4130 -4134 0
-4131 -4135 0
-4132 -4136 0
-4129 -5545 0
-4130 -5546 0
-4131 -5547 0
-4132 -5548 0
-4129 -5789 0
-4130 -5790 0
-4131 -5791 0
-4132 -5792 0
-4129 -4317 0
-4130 -4318 0
-4131 -4319 0
-4132 -4320 0
-4129 -4333 0
-4130 -4334 0
-4131 -4335 0
-4132 -4336 0
-4133 -4357 0
-4134 -4358 0
-4135 -4359 0
-4136 -4360 0
-4133 -4881 0
-4134 -4882 0
-4135 -4883 0
-4136 -4884 0
-4133 -4373 0
-4134 -4374 0
-4135 -4375 0
-4136 -4376 0
-4133 -4897 0
-4134 -4898 0
-4135 -4899 0
-4136 -4900 0
-4133 -4137 0
-4134 -4138 0
-4135 -4139 0
-4136 -4140 0
-4133 -5549 0
-4134 -5550 0
-4135 -5551 0
-4136 -5552 0
-4133 -4337 0
-4134 -4338 0
-4135 -4339 0
-4136 -4340 0
-4133 -4321 0
-4134 -4322 0
-4135 -4323 0
-4136 -4324 0
-4137 -4361 0
-4138 -4362 0
-4139 -4363 0
-4140 -4364 0
-4137 -5129 0
-4138 -5130 0
-4139 -5131 0
-4140 -5132 0
-4137 -5517 0
-4138 -5518 0
-4139 -5519 0
-4140 -5520 0
-4137 -4885 0
-4138 -4886 0
-4139 -4887 0
-4140 -4888 0
-4137 -4813 0
-4138 -4814 0
-4139 -4815 0
-4140 -4816 0
-4137 -4325 0
-4138 -4326 0
-4139 -4327 0
-4140 -4328 0
-4141 -5141 0
-4142 -5142 0
-4143 -5143 0
-4144 -5144 0
-4141 -4153 0
-4142 -4154 0
-4143 -4155 0
-4144 -4156 0
-4141 -5801 0
-4142 -5802 0
-4143 -5803 0
-4144 -5804 0
-4141 -4861 0
-4142 -4862 0
-4143 -4863 0
-4144 -4864 0
-4141 -5929 0
-4142 -5930 0
-4143 -5931 0
-4144 -5932 0
-4141 -5941 0
-4142 -5942 0
-4143 -5943 0
-4144 -5944 0
-4141 -4929 0
-4142 -4930 0
-4143 -4931 0
-4144 -4932 0
-4145 -5185 0
-4146 -5186 0
-4147 -5187 0
-4148 -5188 0
-4145 -5221 0
-4146 -5222 0
-4147 -5223 0
-4148 -5224 0
-4145 -4825 0
-4146 -4826 0
-4147 -4827 0
-4148 -4828 0
-4145 -5865 0
-4146 -5866 0
-4147 -5867 0
-4148 -5868 0
-4145 -5389 0
-4146 -5390 0
-4147 -5391 0
-4148 -5392 0
-4145 -4369 0
-4146 -4370 0
-4147 -4371 0
-4148 -4372 0
-4145 -5909 0
-4146 -5910 0
-4147 -5911 0
-4148 -5912 0
-4145 -5405 0
-4146 -5406 0
-4147 -5407 0
-4148 -5408 0
-4145 -6013 0
-4146 -6014 0
-4147 -6015 0
-4148 -6016 0
-4145 -5013 0
-4146 -5014 0
-4147 -5015 0
-4148 -5016 0
-4145 -5029 0
-4146 -5030 0
-4147 -5031 0
-4148 -5032 0
-4145 -5053 0
-4146 -5054 0
-4147 -5055 0
-4148 -5056 0
-4149 -5137 0
-4150 -5138 0
-4151 -5139 0
-4152 -5140 0
-4149 -5177 0
-4150 -5178 0
-4151 -5179 0
-4152 -5180 0
-4149 -4157 0
-4150 -4158 0
-4151 -4159 0
-4152 -4160 0
-4149 -5185 0
-4150 -5186 0
-4151 -5187 0
-4152 -5188 0
-4149 -5193 0
-4150 -5194 0
-4151 -5195 0
-4152 -5196 0
-4149 -4833 0
-4150 -4834 0
-4151 -4835 0
-4152 -4836 0
-4149 -5409 0
-4150 -5410 0
-4151 -5411 0
-4152 -5412 0
-4149 -6069 0
-4150 -6070 0
-4151 -6071 0
-4152 -6072 0
-4149 -6077 0
-4150 -6078 0
-4151 -6079 0
-4152 -6080 0
-4149 -5065 0
-4150 -5066 0
-4151 -5067 0
-4152 -5068 0
-4149 -5605 0
-4150 -5606 0
-4151 -5607 0
-4152 -5608 0
-4153 -5213 0
-4154 -5214 0
-4155 -5215 0
-4156 -5216 0
-4153 -5233 0
-4154 -5234 0
-4155 -5235 0
-4156 -5236 0
-4153 -4789 0
-4154 -4790 0
-4155 -4791 0
-4156 -4792 0
-4153 -4881 0
-4154 -4882 0
-4155 -4883 0
-4156 -4884 0
-4153 -4381 0
-4154 -4382 0
-4155 -4383 0
-4156 -4384 0
-4153 -4925 0
-4154 -4926 0
-4155 -4927 0
-4156 -4928 0
-4153 -4949 0
-4154 -4950 0
-4155 -4951 0
-4156 -4952 0
-4157 -5133 0
-4158 -5134 0
-4159 -5135 0
-4160 -5136 0
-4157 -5169 0
-4158 -5170 0
-4159 -5171 0
-4160 -5172 0
-4157 -5401 0
-4158 -5402 0
-4159 -5403 0
-4160 -5404 0
-4157 -5413 0
-4158 -5414 0
-4159 -5415 0
-4160 -5416 0
-4157 -4405 0
-4158 -4406 0
-4159 -4407 0
-4160 -4408 0
-4157 -4413 0
-4158 -4414 0
-4159 -4415 0
-4160 -4416 0
-4157 -5493 0
-4158 -5494 0
-4159 -5495 0
-4160 -5496 0
-4157 -5045 0
-4158 -5046 0
-4159 -5047 0
-4160 -5048 0
-4157 -5077 0
-4158 -5078 0
-4159 -5079 0
-4160 -5080 0
-4161 -4625 0
-4162 -4626 0
-4163 -4627 0
-4164 -4628 0
-4161 -5417 0
-4162 -5418 0
-4163 -5419 0
-4164 -5420 0
-4161 -5421 0
-4162 -5422 0
-4163 -5423 0
-4164 -5424 0
-4161 -4217 0
-4162 -4218 0
-4163 -4219 0
-4164 -4220 0
-4161 -5493 0
-4162 -5494 0
-4163 -5495 0
-4164 -5496 0
-4165 -4205 0
-4166 -4206 0
-4167 -4207 0
-4168 -4208 0
-4165 -5809 0
-4166 -5810 0
-4167 -5811 0
-4168 -5812 0
-4165 -4409 0
-4166 -4410 0
-4167 -4411 0
-4168 -4412 0
-4165 -4289 0
-4166 -4290 0
-4167 -4291 0
-4168 -4292 0
-4165 -4189 0
-4166 -4190 0
-4167 -4191 0
-4168 -4192 0
-4169 -5157 0
-4170 -5158 0
-4171 -5159 0
-4172 -5160 0
-4169 -5197 0
-4170 -5198 0
-4171 -5199 0
-4172 -5200 0
-4169 -4181 0
-4170 -4182 0
-4171 -4183 0
-4172 -4184 0
-4169 -5085 0
-4170 -5086 0
-4171 -5087 0
-4172 -5088 0
-4173 -5205 0
-4174 -5206 0
-4175 -5207 0
-4176 -5208 0
-4173 -4185 0
-4174 -4186 0
-4175 -4187 0
-4176 -4188 0
-4173 -4233 0
-4174 -4234 0
-4175 -4235 0
-4176 -4236 0
-4173 -5257 0
-4174 -5258 0
-4175 -5259 0
-4176 -5260 0
-4173 -5817 0
-4174 -5818 0
-4175 -5819 0
-4176 -5820 0
-4173 -4809 0
-4174 -4810 0
-4175 -4811 0
-4176 -4812 0
-4173 -4841 0
-4174 -4842 0
-4175 -4843 0
-4176 -4844 0
-4173 -5425 0
-4174 -5426 0
-4175 -5427 0
-4176 -5428 0
-4173 -5433 0
-4174 -5434 0
-4175 -5435 0
-4176 -5436 0
-4173 -4421 0
-4174 -4422 0
-4175 -4423 0
-4176 -4424 0
-4173 -5529 0
-4174 -5530 0
-4175 -5531 0
-4176 -5532 0
-4173 -6073 0
-4174 -6074 0
-4175 -6075 0
-4176 -6076 0
-4173 -5057 0
-4174 -5058 0
-4175 -5059 0
-4176 -5060 0
-4177 -5165 0
-4178 -5166 0
-4179 -5167 0
-4180 -5168 0
-4177 -4181 0
-4178 -4182 0
-4179 -4183 0
-4180 -4184 0
-4177 -6125 0
-4178 -6126 0
-4179 -6127 0
-4180 -6128 0
-4177 -4765 0
-4178 -4766 0
-4179 -4767 0
-4180 -4768 0
-4177 -4273 0
-4178 -4274 0
-4179 -4275 0
-4180 -4276 0
-4177 -4297 0
-4178 -4298 0
-4179 -4299 0
-4180 -4300 0
-4177 -5409 0
-4178 -5410 0
-4179 -5411 0
-4180 -5412 0
-4177 -5429 0
-4178 -5430 0
-4179 -5431 0
-4180 -5432 0
-4177 -6037 0
-4178 -6038 0
-4179 -6039 0
-4180 -6040 0
-4177 -5065 0
-4178 -5066 0
-4179 -5067 0
-4180 -5068 0
-4177 -5089 0
-4178 -5090 0
-4179 -5091 0
-4180 -5092 0
-4181 -5169 0
-4182 -5170 0
-4183 -5171 0
-4184 -5172 0
-4181 -4417 0
-4182 -4418 0
-4183 -4419 0
-4184 -4420 0
-4181 -4801 0
-4182 -4802 0
-4183 -4803 0
-4184 -4804 0
-4185 -5153 0
-4186 -5154 0
-4187 -5155 0
-4188 -5156 0
-4185 -5185 0
-4186 -5186 0
-4187 -5187 0
-4188 -5188 0
-4185 -5213 0
-4186 -5214 0
-4187 -5215 0
-4188 -5216 0
-4185 -4241 0
-4186 -4242 0
-4187 -4243 0
-4188 -4244 0
-4185 -4805 0
-4186 -4806 0
-4187 -4807 0
-4188 -4808 0
-4185 -4813 0
-4186 -4814 0
-4187 -4815 0
-4188 -4816 0
-4185 -5433 0
-4186 -5434 0
-4187 -5435 0
-4188 -5436 0
-4185 -4933 0
-4186 -4934 0
-4187 -4935 0
-4188 -4936 0
-4185 -4429 0
-4186 -4430 0
-4187 -4431 0
-4188 -4432 0
-4185 -4973 0
-4186 -4974 0
-4187 -4975 0
-4188 -4976 0
-4185 -5525 0
-4186 -5526 0
-4187 -5527 0
-4188 -5528 0
-4185 -6065 0
-4186 -6066 0
-4187 -6067 0
-4188 -6068 0
-4185 -5093 0
-4186 -5094 0
-4187 -5095 0
-4188 -5096 0
-4189 -5193 0
-4190 -5194 0
-4191 -5195 0
-4192 -5196 0
-4189 -4193 0
-4190 -4194 0
-4191 -4195 0
-4192 -4196 0
-4189 -5213 0
-4190 -5214 0
-4191 -5215 0
-4192 -5216 0
-4189 -5825 0
-4190 -5826 0
-4191 -5827 0
-4192 -5828 0
-4189 -4301 0
-4190 -4302 0
-4191 -4303 0
-4192 -4304 0
-4189 -4821 0
-4190 -4822 0
-4191 -4823 0
-4192 -4824 0
-4189 -5445 0
-4190 -5446 0
-4191 -5447 0
-4192 -5448 0
-4189 -4429 0
-4190 -4430 0
-4191 -4431 0
-4192 -4432 0
-4189 -5097 0
-4190 -5098 0
-4191 -5099 0
-4192 -5100 0
-4193 -5217 0
-4194 -5218 0
-4195 -5219 0
-4196 -5220 0
-4193 -4501 0
-4194 -4502 0
-4195 -4503 0
-4196 -4504 0
-4193 -5449 0
-4194 -5450 0
-4195 -5451 0
-4196 -5452 0
-4193 -4433 0
-4194 -4434 0
-4195 -4435 0
-4196 -4436 0
-4197 -4957 0
-4198 -4958 0
-4199 -4959 0
-4200 -4960 0
-4197 -5269 0
-4198 -5270 0
-4199 -5271 0
-4200 -5272 0
-4197 -5053 0
-4198 -5054 0
-4199 -5055 0
-4200 -5056 0
-4197 -5565 0
-4198 -5566 0
-4199 -5567 0
-4200 -5568 0
-4197 -4429 0
-4198 -4430 0
-4199 -4431 0
-4200 -4432 0
-4197 -4945 0
-4198 -4946 0
-4199 -4947 0
-4200 -4948 0
-4197 -4445 0
-4198 -4446 0
-4199 -4447 0
-4200 -4448 0
-4197 -4201 0
-4198 -4202 0
-4199 -4203 0
-4200 -4204 0
-4201 -5185 0
-4202 -5186 0
-4203 -5187 0
-4204 -5188 0
-4201 -4433 0
-4202 -4434 0
-4203 -4435 0
-4204 -4436 0
-4201 -4949 0
-4202 -4950 0
-4203 -4951 0
-4204 -4952 0
-4201 -5461 0
-4202 -5462 0
-4203 -5463 0
-4204 -5464 0
-4205 -4365 0
-4206 -4366 0
-4207 -4367 0
-4208 -4368 0
-4205 -5433 0
-4206 -5434 0
-4207 -5435 0
-4208 -5436 0
-4205 -5825 0
-4206 -5826 0
-4207 -5827 0
-4208 -5828 0
-4205 -5193 0
-4206 -5194 0
-4207 -5195 0
-4208 -5196 0
-4205 -5093 0
-4206 -5094 0
-4207 -5095 0
-4208 -5096 0
-4209 -4233 0
-4210 -4234 0
-4211 -4235 0
-4212 -4236 0
-4209 -6029 0
-4210 -6030 0
-4211 -6031 0
-4212 -6032 0
-4209 -5281 0
-4210 -5282 0
-4211 -5283 0
-4212 -5284 0
-4209 -4921 0
-4210 -4922 0
-4211 -4923 0
-4212 -4924 0
-4209 -4213 0
-4210 -4214 0
-4211 -4215 0
-4212 -4216 0
-4209 -5961 0
-4210 -5962 0
-4211 -5963 0
-4212 -5964 0
-4209 -4465 0
-4210 -4466 0
-4211 -4467 0
-4212 -4468 0
-4213 -4237 0
-4214 -4238 0
-4215 -4239 0
-4216 -4240 0
-4213 -5009 0
-4214 -5010 0
-4215 -5011 0
-4216 -5012 0
-4213 -4377 0
-4214 -4378 0
-4215 -4379 0
-4216 -4380 0
-4213 -5445 0
-4214 -5446 0
-4215 -5447 0
-4216 -5448 0
-4213 -5833 0
-4214 -5834 0
-4215 -5835 0
-4216 -5836 0
-4213 -5097 0
-4214 -5098 0
-4215 -5099 0
-4216 -5100 0
-4213 -4333 0
-4214 -4334 0
-4215 -4335 0
-4216 -4336 0
-4217 -4225 0
-4218 -4226 0
-4219 -4227 0
-4220 -4228 0
-4217 -4509 0
-4218 -4510 0
-4219 -4511 0
-4220 -4512 0
-4217 -4661 0
-4218 -4662 0
-4219 -4663 0
-4220 -4664 0
-4221 -4233 0
-4222 -4234 0
-4223 -4235 0
-4224 -4236 0
-4221 -4249 0
-4222 -4250 0
-4223 -4251 0
-4224 -4252 0
-4221 -5285 0
-4222 -5286 0
-4223 -5287 0
-4224 -5288 0
-4221 -5465 0
-4222 -5466 0
-4223 -5467 0
-4224 -5468 0
-4221 -4349 0
-4222 -4350 0
-4223 -4351 0
-4224 -4352 0
-4225 -5273 0
-4226 -5274 0
-4227 -5275 0
-4228 -5276 0
-4225 -4517 0
-4226 -4518 0
-4227 -4519 0
-4228 -4520 0
-4225 -4673 0
-4226 -4674 0
-4227 -4675 0
-4228 -4676 0
-4225 -5949 0
-4226 -5950 0
-4227 -5951 0
-4228 -5952 0
-4225 -5969 0
-4226 -5970 0
-4227 -5971 0
-4228 -5972 0
-4225 -5113 0
-4226 -5114 0
-4227 -5115 0
-4228 -5116 0
-4225 -4837 0
-4226 -4838 0
-4227 -4839 0
-4228 -4840 0
-4229 -4997 0
-4230 -4998 0
-4231 -4999 0
-4232 -5000 0
-4229 -4233 0
-4230 -4234 0
-4231 -4235 0
-4232 -4236 0
-4229 -4253 0
-4230 -4254 0
-4231 -4255 0
-4232 -4256 0
-4229 -5289 0
-4230 -5290 0
-4231 -5291 0
-4232 -5292 0
-4229 -5837 0
-4230 -5838 0
-4231 -5839 0
-4232 -5840 0
-4229 -5589 0
-4230 -5590 0
-4231 -5591 0
-4232 -5592 0
-4229 -5745 0
-4230 -5746 0
-4231 -5747 0
-4232 -5748 0
-4233 -5121 0
-4234 -5122 0
-4235 -5123 0
-4236 -5124 0
-4233 -5209 0
-4234 -5210 0
-4235 -5211 0
-4236 -5212 0
-4233 -4237 0
-4234 -4238 0
-4235 -4239 0
-4236 -4240 0
-4233 -4241 0
-4234 -4242 0
-4235 -4243 0
-4236 -4244 0
-4233 -5245 0
-4234 -5246 0
-4235 -5247 0
-4236 -5248 0
-4233 -4257 0
-4234 -4258 0
-4235 -4259 0
-4236 -4260 0
-4233 -6033 0
-4234 -6034 0
-4235 -6035 0
-4236 -6036 0
-4233 -4265 0
-4234 -4266 0
-4235 -4267 0
-4236 -4268 0
-4233 -5293 0
-4234 -5294 0
-4235 -5295 0
-4236 -5296 0
-4233 -5829 0
-4234 -5830 0
-4235 -5831 0
-4236 -5832 0
-4233 -5841 0
-4234 -5842 0
-4235 -5843 0
-4236 -5844 0
-4233 -5233 0
-4234 -5234 0
-4235 -5235 0
-4236 -5236 0
-4233 -4841 0
-4234 -4842 0
-4235 -4843 0
-4236 -4844 0
-4233 -4845 0
-4234 -4846 0
-4235 -4847 0
-4236 -4848 0
-4233 -4849 0
-4234 -4850 0
-4235 -4851 0
-4236 -4852 0
-4233 -5749 0
-4234 -5750 0
-4235 -5751 0
-4236 -5752 0
-4233 -4357 0
-4234 -4358 0
-4235 -4359 0
-4236 -4360 0
-4233 -5465 0
-4234 -5466 0
-4235 -5467 0
-4236 -5468 0
-4233 -5469 0
-4234 -5470 0
-4235 -5471 0
-4236 -5472 0
-4233 -4477 0
-4234 -4478 0
-4235 -4479 0
-4236 -4480 0
-4233 -4485 0
-4234 -4486 0
-4235 -4487 0
-4236 -4488 0
-4233 -5001 0
-4234 -5002 0
-4235 -5003 0
-4236 -5004 0
-4233 -5501 0
-4234 -5502 0
-4235 -5503 0
-4236 -5504 0
-4233 -6029 0
-4234 -6030 0
-4235 -6031 0
-4236 -6032 0
-4233 -5021 0
-4234 -5022 0
-4235 -5023 0
-4236 -5024 0
-4233 -5589 0
-4234 -5590 0
-4235 -5591 0
-4236 -5592 0
-4233 -5081 0
-4234 -5082 0
-4235 -5083 0
-4236 -5084 0
-4233 -5593 0
-4234 -5594 0
-4235 -5595 0
-4236 -5596 0
-4233 -5609 0
-4234 -5610 0
-4235 -5611 0
-4236 -5612 0
-4237 -5201 0
-4238 -5202 0
-4239 -5203 0
-4240 -5204 0
-4237 -5213 0
-4238 -5214 0
-4239 -5215 0
-4240 -5216 0
-4237 -4245 0
-4238 -4246 0
-4239 -4247 0
-4240 -4248 0
-4237 -5297 0
-4238 -5298 0
-4239 -5299 0
-4240 -5300 0
-4237 -4361 0
-4238 -4362 0
-4239 -4363 0
-4240 -4364 0
-4237 -4481 0
-4238 -4482 0
-4239 -4483 0
-4240 -4484 0
-4237 -5025 0
-4238 -5026 0
-4239 -5027 0
-4240 -5028 0
-4237 -5593 0
-4238 -5594 0
-4239 -5595 0
-4240 -5596 0
-4237 -5085 0
-4238 -5086 0
-4239 -5087 0
-4240 -5088 0
-4241 -5225 0
-4242 -5226 0
-4243 -5227 0
-4244 -5228 0
-4241 -5249 0
-4242 -5250 0
-4243 -5251 0
-4244 -5252 0
-4241 -4245 0
-4242 -4246 0
-4243 -4247 0
-4244 -4248 0
-4241 -4261 0
-4242 -4262 0
-4243 -4263 0
-4244 -4264 0
-4241 -4269 0
-4242 -4270 0
-4243 -4271 0
-4244 -4272 0
-4241 -5301 0
-4242 -5302 0
-4243 -5303 0
-4244 -5304 0
-4241 -4305 0
-4242 -4306 0
-4243 -4307 0
-4244 -4308 0
-4241 -4369 0
-4242 -4370 0
-4243 -4371 0
-4244 -4372 0
-4241 -5469 0
-4242 -5470 0
-4243 -5471 0
-4244 -5472 0
-4241 -4489 0
-4242 -4490 0
-4243 -4491 0
-4244 -4492 0
-4241 -5505 0
-4242 -5506 0
-4243 -5507 0
-4244 -5508 0
-4241 -5089 0
-4242 -5090 0
-4243 -5091 0
-4244 -5092 0
-4241 -5597 0
-4242 -5598 0
-4243 -5599 0
-4244 -5600 0
-4245 -5345 0
-4246 -5346 0
-4247 -5347 0
-4248 -5348 0
-4245 -5833 0
-4246 -5834 0
-4247 -5835 0
-4248 -5836 0
-4245 -4845 0
-4246 -4846 0
-4247 -4847 0
-4248 -4848 0
-4249 -5765 0
-4250 -5766 0
-4251 -5767 0
-4252 -5768 0
-4249 -4377 0
-4250 -4378 0
-4251 -4379 0
-4252 -4380 0
-4249 -6045 0
-4250 -6046 0
-4251 -6047 0
-4252 -6048 0
-4249 -4257 0
-4250 -4258 0
-4251 -4259 0
-4252 -4260 0
-4249 -5849 0
-4250 -5850 0
-4251 -5851 0
-4252 -5852 0
-4253 -5853 0
-4254 -5854 0
-4255 -5855 0
-4256 -5856 0
-4253 -5773 0
-4254 -5774 0
-4255 -5775 0
-4256 -5776 0
-4253 -4381 0
-4254 -4382 0
-4255 -4383 0
-4256 -4384 0
-4253 -4257 0
-4254 -4258 0
-4255 -4259 0
-4256 -4260 0
-4253 -5541 0
-4254 -5542 0
-4255 -5543 0
-4256 -5544 0
-4253 -5097 0
-4254 -5098 0
-4255 -5099 0
-4256 -5100 0
-4253 -4969 0
-4254 -4970 0
-4255 -4971 0
-4256 -4972 0
-4253 -5237 0
-4254 -5238 0
-4255 -5239 0
-4256 -5240 0
-4253 -5885 0
-4254 -5886 0
-4255 -5887 0
-4256 -5888 0
-4257 -5777 0
-4258 -5778 0
-4259 -5779 0
-4260 -5780 0
-4257 -4261 0
-4258 -4262 0
-4259 -4263 0
-4260 -4264 0
-4257 -5309 0
-4258 -5310 0
-4259 -5311 0
-4260 -5312 0
-4257 -5857 0
-4258 -5858 0
-4259 -5859 0
-4260 -5860 0
-4257 -5957 0
-4258 -5958 0
-4259 -5959 0
-4260 -5960 0
-4257 -6033 0
-4258 -6034 0
-4259 -6035 0
-4260 -6036 0
-4257 -5601 0
-4258 -5602 0
-4259 -5603 0
-4260 -5604 0
-4261 -5477 0
-4262 -5478 0
-4263 -5479 0
-4264 -5480 0
-4261 -5541 0
-4262 -5542 0
-4263 -5543 0
-4264 -5544 0
-4261 -4973 0
-4262 -4974 0
-4263 -4975 0
-4264 -4976 0
-4261 -5101 0
-4262 -5102 0
-4263 -5103 0
-4264 -5104 0
-4261 -5317 0
-4262 -5318 0
-4263 -5319 0
-4264 -5320 0
-4261 -5841 0
-4262 -5842 0
-4263 -5843 0
-4264 -5844 0
-4261 -5233 0
-4262 -5234 0
-4263 -5235 0
-4264 -5236 0
-4265 -5917 0
-4266 -5918 0
-4267 -5919 0
-4268 -5920 0
-4265 -4269 0
-4266 -4270 0
-4267 -4271 0
-4268 -4272 0
-4265 -5353 0
-4266 -5354 0
-4267 -5355 0
-4268 -5356 0
-4265 -4849 0
-4266 -4850 0
-4267 -4851 0
-4268 -4852 0
-4265 -5961 0
-4266 -5962 0
-4267 -5963 0
-4268 -5964 0
-4265 -4561 0
-4266 -4562 0
-4267 -4563 0
-4268 -4564 0
-4265 -4441 0
-4266 -4442 0
-4267 -4443 0
-4268 -4444 0
-4269 -4381 0
-4270 -4382 0
-4271 -4383 0
-4272 -4384 0
-4269 -4565 0
-4270 -4566 0
-4271 -4567 0
-4272 -4568 0
-4273 -4881 0
-4274 -4882 0
-4275 -4883 0
-4276 -4884 0
-4273 -5037 0
-4274 -5038 0
-4275 -5039 0
-4276 -5040 0
-4273 -4301 0
-4274 -4302 0
-4275 -4303 0
-4276 -4304 0
-4277 -4873 0
-4278 -4874 0
-4279 -4875 0
-4280 -4876 0
-4277 -5133 0
-4278 -5134 0
-4279 -5135 0
-4280 -5136 0
-4277 -4517 0
-4278 -4518 0
-4279 -4519 0
-4280 -4520 0
-4277 -5033 0
-4278 -5034 0
-4279 -5035 0
-4280 -5036 0
-4277 -4285 0
-4278 -4286 0
-4279 -4287 0
-4280 -4288 0
-4277 -5865 0
-4278 -5866 0
-4279 -5867 0
-4280 -5868 0
-4277 -5613 0
-4278 -5614 0
-4279 -5615 0
-4280 -5616 0
-4277 -4325 0
-4278 -4326 0
-4279 -4327 0
-4280 -4328 0
-4281 -4881 0
-4282 -4882 0
-4283 -4883 0
-4284 -4884 0
-4281 -5013 0
-4282 -5014 0
-4283 -5015 0
-4284 -5016 0
-4281 -5085 0
-4282 -5086 0
-4283 -5087 0
-4284 -5088 0
-4281 -4285 0
-4282 -4286 0
-4283 -4287 0
-4284 -4288 0
-4281 -5297 0
-4282 -5298 0
-4283 -5299 0
-4284 -5300 0
-4281 -4333 0
-4282 -4334 0
-4283 -4335 0
-4284 -4336 0
-4281 -4853 0
-4282 -4854 0
-4283 -4855 0
-4284 -4856 0
-4285 -5137 0
-4286 -5138 0
-4287 -5139 0
-4288 -5140 0
-4285 -4885 0
-4286 -4886 0
-4287 -4887 0
-4288 -4888 0
-4285 -4525 0
-4286 -4526 0
-4287 -4527 0
-4288 -4528 0
-4285 -4297 0
-4286 -4298 0
-4287 -4299 0
-4288 -4300 0
-4285 -4337 0
-4286 -4338 0
-4287 -4339 0
-4288 -4340 0
-4285 -4857 0
-4286 -4858 0
-4287 -4859 0
-4288 -4860 0
-4289 -5153 0
-4290 -5154 0
-4291 -5155 0
-4292 -5156 0
-4289 -5709 0
-4290 -5710 0
-4291 -5711 0
-4292 -5712 0
-4289 -5293 0
-4290 -5294 0
-4291 -5295 0
-4292 -5296 0
-4289 -4301 0
-4290 -4302 0
-4291 -4303 0
-4292 -4304 0
-4289 -4353 0
-4290 -4354 0
-4291 -4355 0
-4292 -4356 0
-4289 -5493 0
-4290 -5494 0
-4291 -5495 0
-4292 -5496 0
-4289 -6021 0
-4290 -6022 0
-4291 -6023 0
-4292 -6024 0
-4289 -5077 0
-4290 -5078 0
-4291 -5079 0
-4292 -5080 0
-4289 -5625 0
-4290 -5626 0
-4291 -5627 0
-4292 -5628 0
-4293 -5025 0
-4294 -5026 0
-4295 -5027 0
-4296 -5028 0
-4293 -5049 0
-4294 -5050 0
-4295 -5051 0
-4296 -5052 0
-4293 -4305 0
-4294 -4306 0
-4295 -4307 0
-4296 -4308 0
-4293 -5097 0
-4294 -5098 0
-4295 -5099 0
-4296 -5100 0
-4297 -4905 0
-4298 -4906 0
-4299 -4907 0
-4300 -4908 0
-4297 -5169 0
-4298 -5170 0
-4299 -5171 0
-4300 -5172 0
-4297 -4533 0
-4298 -4534 0
-4299 -4535 0
-4300 -4536 0
-4297 -5865 0
-4298 -5866 0
-4299 -5867 0
-4300 -5868 0
-4301 -4913 0
-4302 -4914 0
-4303 -4915 0
-4304 -4916 0
-4301 -4929 0
-4302 -4930 0
-4303 -4931 0
-4304 -4932 0
-4301 -4309 0
-4302 -4310 0
-4303 -4311 0
-4304 -4312 0
-4301 -5309 0
-4302 -5310 0
-4303 -5311 0
-4304 -5312 0
-4301 -5333 0
-4302 -5334 0
-4303 -5335 0
-4304 -5336 0
-4305 -4381 0
-4306 -4382 0
-4307 -4383 0
-4308 -4384 0
-4305 -5029 0
-4306 -5030 0
-4307 -5031 0
-4308 -5032 0
-4305 -5689 0
-4306 -5690 0
-4307 -5691 0
-4308 -5692 0
-4305 -5193 0
-4306 -5194 0
-4307 -5195 0
-4308 -5196 0
-4305 -5721 0
-4306 -5722 0
-4307 -5723 0
-4308 -5724 0
-4309 -5017 0
-4310 -5018 0
-4311 -5019 0
-4312 -5020 0
-4309 -4385 0
-4310 -4386 0
-4311 -4387 0
-4312 -4388 0
-4309 -5185 0
-4310 -5186 0
-4311 -5187 0
-4312 -5188 0
-4309 -5317 0
-4310 -5318 0
-4311 -5319 0
-4312 -5320 0
-4313 -4861 0
-4314 -4862 0
-4315 -4863 0
-4316 -4864 0
-4313 -5649 0
-4314 -5650 0
-4315 -5651 0
-4316 -5652 0
-4313 -5153 0
-4314 -5154 0
-4315 -5155 0
-4316 -5156 0
-4313 -5033 0
-4314 -5034 0
-4315 -5035 0
-4316 -5036 0
-4313 -5293 0
-4314 -5294 0
-4315 -5295 0
-4316 -5296 0
-4313 -4541 0
-4314 -4542 0
-4315 -4543 0
-4316 -4544 0
-4313 -4549 0
-4314 -4550 0
-4315 -4551 0
-4316 -4552 0
-4313 -4797 0
-4314 -4798 0
-4315 -4799 0
-4316 -4800 0
-4313 -4333 0
-4314 -4334 0
-4315 -4335 0
-4316 -4336 0
-4317 -4881 0
-4318 -4882 0
-4319 -4883 0
-4320 -4884 0
-4317 -5913 0
-4318 -5914 0
-4319 -5915 0
-4320 -5916 0
-4317 -5661 0
-4318 -5662 0
-4319 -5663 0
-4320 -5664 0
-4317 -4409 0
-4318 -4410 0
-4319 -4411 0
-4320 -4412 0
-4317 -4569 0
-4318 -4570 0
-4319 -4571 0
-4320 -4572 0
-4317 -4321 0
-4318 -4322 0
-4319 -4323 0
-4320 -4324 0
-4317 -4349 0
-4318 -4350 0
-4319 -4351 0
-4320 -4352 0
-4321 -5665 0
-4322 -5666 0
-4323 -5667 0
-4324 -5668 0
-4321 -5261 0
-4322 -5262 0
-4323 -5263 0
-4324 -5264 0
-4321 -4325 0
-4322 -4326 0
-4323 -4327 0
-4324 -4328 0
-4321 -4333 0
-4322 -4334 0
-4323 -4335 0
-4324 -4336 0
-4321 -4353 0
-4322 -4354 0
-4323 -4355 0
-4324 -4356 0
-4321 -4869 0
-4322 -4870 0
-4323 -4871 0
-4324 -4872 0
-4321 -4885 0
-4322 -4886 0
-4323 -4887 0
-4324 -4888 0
-4321 -4393 0
-4322 -4394 0
-4323 -4395 0
-4324 -4396 0
-4321 -4413 0
-4322 -4414 0
-4323 -4415 0
-4324 -4416 0
-4321 -5509 0
-4322 -5510 0
-4323 -5511 0
-4324 -5512 0
-4321 -5517 0
-4322 -5518 0
-4323 -5519 0
-4324 -5520 0
-4321 -4501 0
-4322 -4502 0
-4323 -4503 0
-4324 -4504 0
-4321 -5545 0
-4322 -5546 0
-4323 -5547 0
-4324 -5548 0
-4321 -5041 0
-4322 -5042 0
-4323 -5043 0
-4324 -5044 0
-4321 -4553 0
-4322 -4554 0
-4323 -4555 0
-4324 -4556 0
-4321 -4573 0
-4322 -4574 0
-4323 -4575 0
-4324 -4576 0
-4321 -5089 0
-4322 -5090 0
-4323 -5091 0
-4324 -5092 0
-4325 -5301 0
-4326 -5302 0
-4327 -5303 0
-4328 -5304 0
-4325 -4337 0
-4326 -4338 0
-4327 -4339 0
-4328 -4340 0
-4325 -4873 0
-4326 -4874 0
-4327 -4875 0
-4328 -4876 0
-4325 -4889 0
-4326 -4890 0
-4327 -4891 0
-4328 -4892 0
-4325 -5513 0
-4326 -5514 0
-4327 -5515 0
-4328 -5516 0
-4325 -5521 0
-4326 -5522 0
-4327 -5523 0
-4328 -5524 0
-4325 -5549 0
-4326 -5550 0
-4327 -5551 0
-4328 -5552 0
-4325 -4557 0
-4326 -4558 0
-4327 -4559 0
-4328 -4560 0
-4325 -6125 0
-4326 -6126 0
-4327 -6127 0
-4328 -6128 0
-4329 -5273 0
-4330 -5274 0
-4331 -5275 0
-4332 -5276 0
-4329 -6041 0
-4330 -6042 0
-4331 -6043 0
-4332 -6044 0
-4329 -5045 0
-4330 -5046 0
-4331 -5047 0
-4332 -5048 0
-4329 -4549 0
-4330 -4550 0
-4331 -4551 0
-4332 -4552 0
-4329 -5201 0
-4330 -5202 0
-4331 -5203 0
-4332 -5204 0
-4329 -5093 0
-4330 -5094 0
-4331 -5095 0
-4332 -5096 0
-4333 -5305 0
-4334 -5306 0
-4335 -5307 0
-4336 -5308 0
-4333 -5309 0
-4334 -5310 0
-4335 -5311 0
-4336 -5312 0
-4333 -4817 0
-4334 -4818 0
-4335 -4819 0
-4336 -4820 0
-4333 -4337 0
-4334 -4338 0
-4335 -4339 0
-4336 -4340 0
-4333 -4341 0
-4334 -4342 0
-4335 -4343 0
-4336 -4344 0
-4333 -4361 0
-4334 -4362 0
-4335 -4363 0
-4336 -4364 0
-4333 -4881 0
-4334 -4882 0
-4335 -4883 0
-4336 -4884 0
-4333 -4897 0
-4334 -4898 0
-4335 -4899 0
-4336 -4900 0
-4333 -4929 0
-4334 -4930 0
-4335 -4931 0
-4336 -4932 0
-4337 -5197 0
-4338 -5198 0
-4339 -5199 0
-4340 -5200 0
-4337 -5265 0
-4338 -5266 0
-4339 -5267 0
-4340 -5268 0
-4337 -4821 0
-4338 -4822 0
-4339 -4823 0
-4340 -4824 0
-4337 -4885 0
-4338 -4886 0
-4339 -4887 0
-4340 -4888 0
-4337 -4417 0
-4338 -4418 0
-4339 -4419 0
-4340 -4420 0
-4337 -4933 0
-4338 -4934 0
-4339 -4935 0
-4340 -4936 0
-4337 -5517 0
-4338 -5518 0
-4339 -5519 0
-4340 -5520 0
-4341 -5389 0
-4342 -5390 0
-4343 -5391 0
-4344 -5392 0
-4341 -5269 0
-4342 -5270 0
-4343 -5271 0
-4344 -5272 0
-4341 -4893 0
-4342 -4894 0
-4343 -4895 0
-4344 -4896 0
-4341 -5185 0
-4342 -5186 0
-4343 -5187 0
-4344 -5188 0
-4341 -5317 0
-4342 -5318 0
-4343 -5319 0
-4344 -5320 0
-4341 -4825 0
-4342 -4826 0
-4343 -4827 0
-4344 -4828 0
-4345 -5061 0
-4346 -5062 0
-4347 -5063 0
-4348 -5064 0
-4345 -4425 0
-4346 -4426 0
-4347 -4427 0
-4348 -4428 0
-4345 -5961 0
-4346 -5962 0
-4347 -5963 0
-4348 -5964 0
-4345 -4573 0
-4346 -4574 0
-4347 -4575 0
-4348 -4576 0
-4345 -5081 0
-4346 -5082 0
-4347 -5083 0
-4348 -5084 0
-4345 -4349 0
-4346 -4350 0
-4347 -4351 0
-4348 -4352 0
-4349 -5149 0
-4350 -5150 0
-4351 -5151 0
-4352 -5152 0
-4349 -5205 0
-4350 -5206 0
-4351 -5207 0
-4352 -5208 0
-4349 -4753 0
-4350 -4754 0
-4351 -4755 0
-4352 -4756 0
-4349 -5305 0
-4350 -5306 0
-4351 -5307 0
-4352 -5308 0
-4349 -5357 0
-4350 -5358 0
-4351 -5359 0
-4352 -5360 0
-4349 -4353 0
-4350 -4354 0
-4351 -4355 0
-4352 -4356 0
-4349 -4357 0
-4350 -4358 0
-4351 -4359 0
-4352 -4360 0
-4349 -4377 0
-4350 -4378 0
-4351 -4379 0
-4352 -4380 0
-4349 -4901 0
-4350 -4902 0
-4351 -4903 0
-4352 -4904 0
-4349 -4921 0
-4350 -4922 0
-4351 -4923 0
-4352 -4924 0
-4349 -4937 0
-4350 -4938 0
-4351 -4939 0
-4352 -4940 0
-4349 -4429 0
-4350 -4430 0
-4351 -4431 0
-4352 -4432 0
-4349 -4969 0
-4350 -4970 0
-4351 -4971 0
-4352 -4972 0
-4349 -5065 0
-4350 -5066 0
-4351 -5067 0
-4352 -5068 0
-4349 -4577 0
-4350 -4578 0
-4351 -4579 0
-4352 -4580 0
-4349 -5085 0
-4350 -5086 0
-4351 -5087 0
-4352 -5088 0
-4353 -5613 0
-4354 -5614 0
-4355 -5615 0
-4356 -5616 0
-4353 -5273 0
-4354 -5274 0
-4355 -5275 0
-4356 -5276 0
-4353 -4769 0
-4354 -4770 0
-4355 -4771 0
-4356 -4772 0
-4353 -5313 0
-4354 -5314 0
-4355 -5315 0
-4356 -5316 0
-4353 -5353 0
-4354 -5354 0
-4355 -5355 0
-4356 -5356 0
-4353 -4361 0
-4354 -4362 0
-4355 -4363 0
-4356 -4364 0
-4353 -4905 0
-4354 -4906 0
-4355 -4907 0
-4356 -4908 0
-4353 -4941 0
-4354 -4942 0
-4355 -4943 0
-4356 -4944 0
-4353 -4433 0
-4354 -4434 0
-4355 -4435 0
-4356 -4436 0
-4353 -5981 0
-4354 -5982 0
-4355 -5983 0
-4356 -5984 0
-4353 -6045 0
-4354 -6046 0
-4355 -6047 0
-4356 -6048 0
-4353 -5101 0
-4354 -5102 0
-4355 -5103 0
-4356 -5104 0
-4357 -5157 0
-4358 -5158 0
-4359 -5159 0
-4360 -5160 0
-4357 -5673 0
-4358 -5674 0
-4359 -5675 0
-4360 -5676 0
-4357 -5213 0
-4358 -5214 0
-4359 -5215 0
-4360 -5216 0
-4357 -5361 0
-4358 -5362 0
-4359 -5363 0
-4360 -5364 0
-4357 -4361 0
-4358 -4362 0
-4359 -4363 0
-4360 -4364 0
-4357 -4369 0
-4358 -4370 0
-4359 -4371 0
-4360 -4372 0
-4357 -5921 0
-4358 -5922 0
-4359 -5923 0
-4360 -5924 0
-4357 -5965 0
-4358 -5966 0
-4359 -5967 0
-4360 -5968 0
-4357 -4945 0
-4358 -4946 0
-4359 -4947 0
-4360 -4948 0
-4357 -4441 0
-4358 -4442 0
-4359 -4443 0
-4360 -4444 0
-4357 -5037 0
-4358 -5038 0
-4359 -5039 0
-4360 -5040 0
-4357 -5061 0
-4358 -5062 0
-4359 -5063 0
-4360 -5064 0
-4357 -4573 0
-4358 -4574 0
-4359 -4575 0
-4360 -4576 0
-4357 -5621 0
-4358 -5622 0
-4359 -5623 0
-4360 -5624 0
-4361 -5217 0
-4362 -5218 0
-4363 -5219 0
-4364 -5220 0
-4361 -4757 0
-4362 -4758 0
-4363 -4759 0
-4364 -4760 0
-4361 -5325 0
-4362 -5326 0
-4363 -5327 0
-4364 -5328 0
-4361 -5337 0
-4362 -5338 0
-4363 -5339 0
-4364 -5340 0
-4361 -4385 0
-4362 -4386 0
-4363 -4387 0
-4364 -4388 0
-4361 -4901 0
-4362 -4902 0
-4363 -4903 0
-4364 -4904 0
-4361 -4393 0
-4362 -4394 0
-4363 -4395 0
-4364 -4396 0
-4361 -4949 0
-4362 -4950 0
-4363 -4951 0
-4364 -4952 0
-4361 -4445 0
-4362 -4446 0
-4363 -4447 0
-4364 -4448 0
-4361 -4973 0
-4362 -4974 0
-4363 -4975 0
-4364 -4976 0
-4361 -5065 0
-4362 -5066 0
-4363 -5067 0
-4364 -5068 0
-4365 -5125 0
-4366 -5126 0
-4367 -5127 0
-4368 -5128 0
-4365 -5165 0
-4366 -5166 0
-4367 -5167 0
-4368 -5168 0
-4365 -5225 0
-4366 -5226 0
-4367 -5227 0
-4368 -5228 0
-4365 -5273 0
-4366 -5274 0
-4367 -5275 0
-4368 -5276 0
-4365 -4369 0
-4366 -4370 0
-4367 -4371 0
-4368 -4372 0
-4365 -5605 0
-4366 -5606 0
-4367 -5607 0
-4368 -5608 0
-4365 -5625 0
-4366 -5626 0
-4367 -5627 0
-4368 -5628 0
-4369 -5169 0
-4370 -5170 0
-4371 -5171 0
-4372 -5172 0
-4369 -5365 0
-4370 -5366 0
-4371 -5367 0
-4372 -5368 0
-4369 -5901 0
-4370 -5902 0
-4371 -5903 0
-4372 -5904 0
-4369 -5925 0
-4370 -5926 0
-4371 -5927 0
-4372 -5928 0
-4369 -4909 0
-4370 -4910 0
-4371 -4911 0
-4372 -4912 0
-4369 -4925 0
-4370 -4926 0
-4371 -4927 0
-4372 -4928 0
-4369 -6049 0
-4370 -6050 0
-4371 -6051 0
-4372 -6052 0
-4369 -4585 0
-4370 -4586 0
-4371 -4587 0
-4372 -4588 0
-4369 -5629 0
-4370 -5630 0
-4371 -5631 0
-4372 -5632 0
-4373 -5293 0
-4374 -5294 0
-4375 -5295 0
-4376 -5296 0
-4373 -4789 0
-4374 -4790 0
-4375 -4791 0
-4376 -4792 0
-4373 -5317 0
-4374 -5318 0
-4375 -5319 0
-4376 -5320 0
-4373 -5357 0
-4374 -5358 0
-4375 -5359 0
-4376 -5360 0
-4373 -4401 0
-4374 -4402 0
-4375 -4403 0
-4376 -4404 0
-4373 -5969 0
-4374 -5970 0
-4375 -5971 0
-4376 -5972 0
-4373 -5481 0
-4374 -5482 0
-4375 -5483 0
-4376 -5484 0
-4377 -5381 0
-4378 -5382 0
-4379 -5383 0
-4380 -5384 0
-4377 -5045 0
-4378 -5046 0
-4379 -5047 0
-4380 -5048 0
-4377 -4977 0
-4378 -4978 0
-4379 -4979 0
-4380 -4980 0
-4377 -5325 0
-4378 -5326 0
-4379 -5327 0
-4380 -5328 0
-4377 -4449 0
-4378 -4450 0
-4379 -4451 0
-4380 -4452 0
-4377 -5625 0
-4378 -5626 0
-4379 -5627 0
-4380 -5628 0
-4381 -6153 0
-4382 -6154 0
-4383 -6155 0
-4384 -6156 0
-4381 -5777 0
-4382 -5778 0
-4383 -5779 0
-4384 -5780 0
-4381 -6033 0
-4382 -6034 0
-4383 -6035 0
-4384 -6036 0
-4381 -5049 0
-4382 -5050 0
-4383 -5051 0
-4384 -5052 0
-4381 -5101 0
-4382 -5102 0
-4383 -5103 0
-4384 -5104 0
-4381 -6129 0
-4382 -6130 0
-4383 -6131 0
-4384 -6132 0
-4381 -5117 0
-4382 -5118 0
-4383 -5119 0
-4384 -5120 0
-4385 -4965 0
-4386 -4966 0
-4387 -4967 0
-4388 -4968 0
-4385 -5365 0
-4386 -5366 0
-4387 -5367 0
-4388 -5368 0
-4389 -4401 0
-4390 -4402 0
-4391 -4403 0
-4392 -4404 0
-4389 -5161 0
-4390 -5162 0
-4391 -5163 0
-4392 -5164 0
-4389 -5293 0
-4390 -5294 0
-4391 -5295 0
-4392 -5296 0
-4389 -5677 0
-4390 -5678 0
-4391 -5679 0
-4392 -5680 0
-4389 -4453 0
-4390 -4454 0
-4391 -4455 0
-4392 -4456 0
-4393 -5033 0
-4394 -5034 0
-4395 -5035 0
-4396 -5036 0
-4393 -5077 0
-4394 -5078 0
-4395 -5079 0
-4396 -5080 0
-4397 -5377 0
-4398 -5378 0
-4399 -5379 0
-4400 -5380 0
-4397 -4521 0
-4398 -4522 0
-4399 -4523 0
-4400 -4524 0
-4397 -5293 0
-4398 -5294 0
-4399 -5295 0
-4400 -5296 0
-4397 -5201 0
-4398 -5202 0
-4399 -5203 0
-4400 -5204 0
-4397 -4829 0
-4398 -4830 0
-4399 -4831 0
-4400 -4832 0
-4397 -4837 0
-4398 -4838 0
-4399 -4839 0
-4400 -4840 0
-4401 -5205 0
-4402 -5206 0
-4403 -5207 0
-4404 -5208 0
-4401 -4753 0
-4402 -4754 0
-4403 -4755 0
-4404 -4756 0
-4401 -5285 0
-4402 -5286 0
-4403 -5287 0
-4404 -5288 0
-4401 -5309 0
-4402 -5310 0
-4403 -5311 0
-4404 -5312 0
-4401 -4841 0
-4402 -4842 0
-4403 -4843 0
-4404 -4844 0
-4401 -4405 0
-4402 -4406 0
-4403 -4407 0
-4404 -4408 0
-4401 -4969 0
-4402 -4970 0
-4403 -4971 0
-4404 -4972 0
-4401 -5557 0
-4402 -5558 0
-4403 -5559 0
-4404 -5560 0
-4401 -6081 0
-4402 -6082 0
-4403 -6083 0
-4404 -6084 0
-4401 -6085 0
-4402 -6086 0
-4403 -6087 0
-4404 -6088 0
-4401 -5089 0
-4402 -5090 0
-4403 -5091 0
-4404 -5092 0
-4401 -5605 0
-4402 -5606 0
-4403 -5607 0
-4404 -5608 0
-4401 -4589 0
-4402 -4590 0
-4403 -4591 0
-4404 -4592 0
-4405 -5637 0
-4406 -5638 0
-4407 -5639 0
-4408 -5640 0
-4405 -5213 0
-4406 -5214 0
-4407 -5215 0
-4408 -5216 0
-4405 -5293 0
-4406 -5294 0
-4407 -5295 0
-4408 -5296 0
-4405 -5317 0
-4406 -5318 0
-4407 -5319 0
-4408 -5320 0
-4405 -4473 0
-4406 -4474 0
-4407 -4475 0
-4408 -4476 0
-4405 -4601 0
-4406 -4602 0
-4407 -4603 0
-4408 -4604 0
-4409 -5641 0
-4410 -5642 0
-4411 -5643 0
-4412 -5644 0
-4409 -5645 0
-4410 -5646 0
-4411 -5647 0
-4412 -5648 0
-4409 -5809 0
-4410 -5810 0
-4411 -5811 0
-4412 -5812 0
-4409 -4413 0
-4410 -4414 0
-4411 -4415 0
-4412 -4416 0
-4409 -4929 0
-4410 -4930 0
-4411 -4931 0
-4412 -4932 0
-4409 -4429 0
-4410 -4430 0
-4411 -4431 0
-4412 -4432 0
-4409 -6057 0
-4410 -6058 0
-4411 -6059 0
-4412 -6060 0
-4409 -6073 0
-4410 -6074 0
-4411 -6075 0
-4412 -6076 0
-4409 -5073 0
-4410 -5074 0
-4411 -5075 0
-4412 -5076 0
-4409 -4597 0
-4410 -4598 0
-4411 -4599 0
-4412 -4600 0
-4413 -5645 0
-4414 -5646 0
-4415 -5647 0
-4416 -5648 0
-4413 -6137 0
-4414 -6138 0
-4415 -6139 0
-4416 -6140 0
-4413 -5813 0
-4414 -5814 0
-4415 -5815 0
-4416 -5816 0
-4413 -4805 0
-4414 -4806 0
-4415 -4807 0
-4416 -4808 0
-4413 -4813 0
-4414 -4814 0
-4415 -4815 0
-4416 -4816 0
-4413 -5333 0
-4414 -5334 0
-4415 -5335 0
-4416 -5336 0
-4413 -5357 0
-4414 -5358 0
-4415 -5359 0
-4416 -5360 0
-4413 -4933 0
-4414 -4934 0
-4415 -4935 0
-4416 -4936 0
-4413 -4433 0
-4414 -4434 0
-4415 -4435 0
-4416 -4436 0
-4413 -5525 0
-4414 -5526 0
-4415 -5527 0
-4416 -5528 0
-4413 -6053 0
-4414 -6054 0
-4415 -6055 0
-4416 -6056 0
-4413 -4529 0
-4414 -4530 0
-4415 -4531 0
-4416 -4532 0
-4413 -4601 0
-4414 -4602 0
-4415 -4603 0
-4416 -4604 0
-4417 -4933 0
-4418 -4934 0
-4419 -4935 0
-4420 -4936 0
-4417 -4813 0
-4418 -4814 0
-4419 -4815 0
-4420 -4816 0
-4417 -5317 0
-4418 -5318 0
-4419 -5319 0
-4420 -5320 0
-4417 -5241 0
-4418 -5242 0
-4419 -5243 0
-4420 -5244 0
-4421 -4485 0
-4422 -4486 0
-4423 -4487 0
-4424 -4488 0
-4421 -5533 0
-4422 -5534 0
-4423 -5535 0
-4424 -5536 0
-4421 -5565 0
-4422 -5566 0
-4423 -5567 0
-4424 -5568 0
-4421 -5485 0
-4422 -5486 0
-4423 -5487 0
-4424 -5488 0
-4421 -4429 0
-4422 -4430 0
-4423 -4431 0
-4424 -4432 0
-4421 -4941 0
-4422 -4942 0
-4423 -4943 0
-4424 -4944 0
-4421 -6093 0
-4422 -6094 0
-4423 -6095 0
-4424 -6096 0
-4421 -5113 0
-4422 -5114 0
-4423 -5115 0
-4424 -5116 0
-4425 -5661 0
-4426 -5662 0
-4427 -5663 0
-4428 -5664 0
-4425 -5953 0
-4426 -5954 0
-4427 -5955 0
-4428 -5956 0
-4425 -4429 0
-4426 -4430 0
-4427 -4431 0
-4428 -4432 0
-4425 -4945 0
-4426 -4946 0
-4427 -4947 0
-4428 -4948 0
-4425 -4437 0
-4426 -4438 0
-4427 -4439 0
-4428 -4440 0
-4425 -5977 0
-4426 -5978 0
-4427 -5979 0
-4428 -5980 0
-4429 -4609 0
-4430 -4610 0
-4431 -4611 0
-4432 -4612 0
-4429 -5125 0
-4430 -5126 0
-4431 -5127 0
-4432 -5128 0
-4429 -5661 0
-4430 -5662 0
-4431 -5663 0
-4432 -5664 0
-4429 -5665 0
-4430 -5666 0
-4431 -5667 0
-4432 -5668 0
-4429 -5697 0
-4430 -5698 0
-4431 -5699 0
-4432 -5700 0
-4429 -5201 0
-4430 -5202 0
-4431 -5203 0
-4432 -5204 0
-4429 -5245 0
-4430 -5246 0
-4431 -5247 0
-4432 -5248 0
-4429 -4761 0
-4430 -4762 0
-4431 -4763 0
-4432 -4764 0
-4429 -5825 0
-4430 -5826 0
-4431 -5827 0
-4432 -5828 0
-4429 -5345 0
-4430 -5346 0
-4431 -5347 0
-4432 -5348 0
-4429 -5349 0
-4430 -5350 0
-4431 -5351 0
-4432 -5352 0
-4429 -5369 0
-4430 -5370 0
-4431 -5371 0
-4432 -5372 0
-4429 -5885 0
-4430 -5886 0
-4431 -5887 0
-4432 -5888 0
-4429 -5889 0
-4430 -5890 0
-4431 -5891 0
-4432 -5892 0
-4429 -5401 0
-4430 -5402 0
-4431 -5403 0
-4432 -5404 0
-4429 -4433 0
-4430 -4434 0
-4431 -4435 0
-4432 -4436 0
-4429 -4937 0
-4430 -4938 0
-4431 -4939 0
-4432 -4940 0
-4429 -4441 0
-4430 -4442 0
-4431 -4443 0
-4432 -4444 0
-4429 -4949 0
-4430 -4950 0
-4431 -4951 0
-4432 -4952 0
-4429 -4449 0
-4430 -4450 0
-4431 -4451 0
-4432 -4452 0
-4429 -5485 0
-4430 -5486 0
-4431 -5487 0
-4432 -5488 0
-4429 -5489 0
-4430 -5490 0
-4431 -5491 0
-4432 -5492 0
-4429 -4985 0
-4430 -4986 0
-4431 -4987 0
-4432 -4988 0
-4429 -4997 0
-4430 -4998 0
-4431 -4999 0
-4432 -5000 0
-4429 -4489 0
-4430 -4490 0
-4431 -4491 0
-4432 -4492 0
-4429 -6057 0
-4430 -6058 0
-4431 -6059 0
-4432 -6060 0
-4429 -6061 0
-4430 -6062 0
-4431 -6063 0
-4432 -6064 0
-4429 -5109 0
-4430 -5110 0
-4431 -5111 0
-4432 -5112 0
-4433 -4613 0
-4434 -4614 0
-4435 -4615 0
-4436 -4616 0
-4433 -5665 0
-4434 -5666 0
-4435 -5667 0
-4436 -5668 0
-4433 -4773 0
-4434 -4774 0
-4435 -4775 0
-4436 -4776 0
-4433 -5373 0
-4434 -5374 0
-4435 -5375 0
-4436 -5376 0
-4433 -4941 0
-4434 -4942 0
-4435 -4943 0
-4436 -4944 0
-4433 -4953 0
-4434 -4954 0
-4435 -4955 0
-4436 -4956 0
-4433 -4445 0
-4434 -4446 0
-4435 -4447 0
-4436 -4448 0
-4433 -4457 0
-4434 -4458 0
-4435 -4459 0
-4436 -4460 0
-4433 -5001 0
-4434 -5002 0
-4435 -5003 0
-4436 -5004 0
-4433 -5533 0
-4434 -5534 0
-4435 -5535 0
-4436 -5536 0
-4433 -5537 0
-4434 -5538 0
-4435 -5539 0
-4436 -5540 0
-4433 -5565 0
-4434 -5566 0
-4435 -5567 0
-4436 -5568 0
-4433 -5089 0
-4434 -5090 0
-4435 -5091 0
-4436 -5092 0
-4433 -5113 0
-4434 -5114 0
-4435 -5115 0
-4436 -5116 0
-4437 -5669 0
-4438 -5670 0
-4439 -5671 0
-4440 -5672 0
-4437 -4441 0
-4438 -4442 0
-4439 -4443 0
-4440 -4444 0
-4437 -5093 0
-4438 -5094 0
-4439 -5095 0
-4440 -5096 0
-4441 -5669 0
-4442 -5670 0
-4443 -5671 0
-4444 -5672 0
-4441 -5237 0
-4442 -5238 0
-4443 -5239 0
-4444 -5240 0
-4441 -5249 0
-4442 -5250 0
-4443 -5251 0
-4444 -5252 0
-4441 -5905 0
-4442 -5906 0
-4443 -5907 0
-4444 -5908 0
-4441 -5405 0
-4442 -5406 0
-4443 -5407 0
-4444 -5408 0
-4441 -5957 0
-4442 -5958 0
-4443 -5959 0
-4444 -5960 0
-4441 -4945 0
-4442 -4946 0
-4443 -4947 0
-4444 -4948 0
-4441 -4957 0
-4442 -4958 0
-4443 -4959 0
-4444 -4960 0
-4441 -4445 0
-4442 -4446 0
-4443 -4447 0
-4444 -4448 0
-4441 -5489 0
-4442 -5490 0
-4443 -5491 0
-4444 -5492 0
-4441 -4989 0
-4442 -4990 0
-4443 -4991 0
-4444 -4992 0
-4445 -4993 0
-4446 -4994 0
-4447 -4995 0
-4448 -4996 0
-4445 -6145 0
-4446 -6146 0
-4447 -6147 0
-4448 -6148 0
-4445 -4949 0
-4446 -4950 0
-4447 -4951 0
-4448 -4952 0
-4445 -5333 0
-4446 -5334 0
-4447 -5335 0
-4448 -5336 0
-4449 -6061 0
-4450 -6062 0
-4451 -6063 0
-4452 -6064 0
-4449 -6093 0
-4450 -6094 0
-4451 -6095 0
-4452 -6096 0
-4449 -4965 0
-4450 -4966 0
-4451 -4967 0
-4452 -4968 0
-4453 -5353 0
-4454 -5354 0
-4455 -5355 0
-4456 -5356 0
-4453 -4541 0
-4454 -4542 0
-4455 -4543 0
-4456 -4544 0
-4453 -5213 0
-4454 -5214 0
-4455 -5215 0
-4456 -5216 0
-4453 -4577 0
-4454 -4578 0
-4455 -4579 0
-4456 -4580 0
-4453 -4457 0
-4454 -4458 0
-4455 -4459 0
-4456 -4460 0
-4457 -4545 0
-4458 -4546 0
-4459 -4547 0
-4460 -4548 0
-4457 -5453 0
-4458 -5454 0
-4459 -5455 0
-4460 -5456 0
-4457 -5085 0
-4458 -5086 0
-4459 -5087 0
-4460 -5088 0
-4457 -4473 0
-4458 -4474 0
-4459 -4475 0
-4460 -4476 0
-4461 -4553 0
-4462 -4554 0
-4463 -4555 0
-4464 -4556 0
-4461 -5357 0
-4462 -5358 0
-4463 -5359 0
-4464 -5360 0
-4465 -5677 0
-4466 -5678 0
-4467 -5679 0
-4468 -5680 0
-4465 -6093 0
-4466 -6094 0
-4467 -6095 0
-4468 -6096 0
-4465 -4561 0
-4466 -4562 0
-4467 -4563 0
-4468 -4564 0
-4465 -4477 0
-4466 -4478 0
-4467 -4479 0
-4468 -4480 0
-4469 -4621 0
-4470 -4622 0
-4471 -4623 0
-4472 -4624 0
-4469 -5001 0
-4470 -5002 0
-4471 -5003 0
-4472 -5004 0
-4469 -5165 0
-4470 -5166 0
-4471 -5167 0
-4472 -5168 0
-4469 -5681 0
-4470 -5682 0
-4471 -5683 0
-4472 -5684 0
-4469 -4585 0
-4470 -4586 0
-4471 -4587 0
-4472 -4588 0
-4469 -5373 0
-4470 -5374 0
-4471 -5375 0
-4472 -5376 0
-4473 -5685 0
-4474 -5686 0
-4475 -5687 0
-4476 -5688 0
-4473 -5237 0
-4474 -5238 0
-4475 -5239 0
-4476 -5240 0
-4473 -5249 0
-4474 -5250 0
-4475 -5251 0
-4476 -5252 0
-4473 -5353 0
-4474 -5354 0
-4475 -5355 0
-4476 -5356 0
-4473 -5365 0
-4474 -5366 0
-4475 -5367 0
-4476 -5368 0
-4473 -5489 0
-4474 -5490 0
-4475 -5491 0
-4476 -5492 0
-4473 -5505 0
-4474 -5506 0
-4475 -5507 0
-4476 -5508 0
-4477 -4481 0
-4478 -4482 0
-4479 -4483 0
-4480 -4484 0
-4477 -5125 0
-4478 -5126 0
-4479 -5127 0
-4480 -5128 0
-4477 -5433 0
-4478 -5434 0
-4479 -5435 0
-4480 -5436 0
-4477 -6089 0
-4478 -6090 0
-4479 -6091 0
-4480 -6092 0
-4477 -5841 0
-4478 -5842 0
-4479 -5843 0
-4480 -5844 0
-4477 -6097 0
-4478 -6098 0
-4479 -6099 0
-4480 -6100 0
-4477 -5113 0
-4478 -5114 0
-4479 -5115 0
-4480 -5116 0
-4481 -5437 0
-4482 -5438 0
-4483 -5439 0
-4484 -5440 0
-4481 -5357 0
-4482 -5358 0
-4483 -5359 0
-4484 -5360 0
-4481 -4977 0
-4482 -4978 0
-4483 -4979 0
-4484 -4980 0
-4485 -4489 0
-4486 -4490 0
-4487 -4491 0
-4488 -4492 0
-4485 -5541 0
-4486 -5542 0
-4487 -5543 0
-4488 -5544 0
-4485 -5445 0
-4486 -5446 0
-4487 -5447 0
-4488 -5448 0
-4489 -4993 0
-4490 -4994 0
-4491 -4995 0
-4492 -4996 0
-4489 -4585 0
-4490 -4586 0
-4491 -4587 0
-4492 -4588 0
-4489 -4985 0
-4490 -4986 0
-4491 -4987 0
-4492 -4988 0
-4493 -4997 0
-4494 -4998 0
-4495 -4999 0
-4496 -5000 0
-4493 -5213 0
-4494 -5214 0
-4495 -5215 0
-4496 -5216 0
-4493 -4577 0
-4494 -4578 0
-4495 -4579 0
-4496 -4580 0
-4497 -5257 0
-4498 -5258 0
-4499 -5259 0
-4500 -5260 0
-4497 -5981 0
-4498 -5982 0
-4499 -5983 0
-4500 -5984 0
-4497 -5009 0
-4498 -5010 0
-4499 -5011 0
-4500 -5012 0
-4497 -4501 0
-4498 -4502 0
-4499 -4503 0
-4500 -4504 0
-4497 -5137 0
-4498 -5138 0
-4499 -5139 0
-4500 -5140 0
-4497 -4517 0
-4498 -4518 0
-4499 -4519 0
-4500 -4520 0
-4501 -5381 0
-4502 -5382 0
-4503 -5383 0
-4504 -5384 0
-4501 -5397 0
-4502 -5398 0
-4503 -5399 0
-4504 -5400 0
-4501 -5025 0
-4502 -5026 0
-4503 -5027 0
-4504 -5028 0
-4501 -4529 0
-4502 -4530 0
-4503 -4531 0
-4504 -4532 0
-4501 -5037 0
-4502 -5038 0
-4503 -5039 0
-4504 -5040 0
-4501 -5169 0
-4502 -5170 0
-4503 -5171 0
-4504 -5172 0
-4501 -4809 0
-4502 -4810 0
-4503 -4811 0
-4504 -4812 0
-4505 -4869 0
-4506 -4870 0
-4507 -4871 0
-4508 -4872 0
-4505 -4517 0
-4506 -4518 0
-4507 -4519 0
-4508 -4520 0
-4505 -5281 0
-4506 -5282 0
-4507 -5283 0
-4508 -5284 0
-4505 -6065 0
-4506 -6066 0
-4507 -6067 0
-4508 -6068 0
-4509 -4625 0
-4510 -4626 0
-4511 -4627 0
-4512 -4628 0
-4509 -4517 0
-4510 -4518 0
-4511 -4519 0
-4512 -4520 0
-4509 -5285 0
-4510 -5286 0
-4511 -5287 0
-4512 -5288 0
-4509 -5421 0
-4510 -5422 0
-4511 -5423 0
-4512 -5424 0
-4509 -4549 0
-4510 -4550 0
-4511 -4551 0
-4512 -4552 0
-4509 -5073 0
-4510 -5074 0
-4511 -5075 0
-4512 -5076 0
-4509 -5493 0
-4510 -5494 0
-4511 -5495 0
-4512 -5496 0
-4513 -5157 0
-4514 -5158 0
-4515 -5159 0
-4516 -5160 0
-4513 -5701 0
-4514 -5702 0
-4515 -5703 0
-4516 -5704 0
-4513 -5717 0
-4514 -5718 0
-4515 -5719 0
-4516 -5720 0
-4513 -5289 0
-4514 -5290 0
-4515 -5291 0
-4516 -5292 0
-4513 -5381 0
-4514 -5382 0
-4515 -5383 0
-4516 -5384 0
-4513 -6001 0
-4514 -6002 0
-4515 -6003 0
-4516 -6004 0
-4513 -4517 0
-4514 -4518 0
-4515 -4519 0
-4516 -4520 0
-4513 -4553 0
-4514 -4554 0
-4515 -4555 0
-4516 -4556 0
-4513 -5581 0
-4514 -5582 0
-4515 -5583 0
-4516 -5584 0
-4517 -4633 0
-4518 -4634 0
-4519 -4635 0
-4520 -4636 0
-4517 -5149 0
-4518 -5150 0
-4519 -5151 0
-4520 -5152 0
-4517 -4641 0
-4518 -4642 0
-4519 -4643 0
-4520 -4644 0
-4517 -5197 0
-4518 -5198 0
-4519 -5199 0
-4520 -5200 0
-4517 -5701 0
-4518 -5702 0
-4519 -5703 0
-4520 -5704 0
-4517 -5705 0
-4518 -5706 0
-4519 -5707 0
-4520 -5708 0
-4517 -5721 0
-4518 -5722 0
-4519 -5723 0
-4520 -5724 0
-4517 -5253 0
-4518 -5254 0
-4519 -5255 0
-4520 -5256 0
-4517 -5017 0
-4518 -5018 0
-4519 -5019 0
-4520 -5020 0
-4517 -5293 0
-4518 -5294 0
-4519 -5295 0
-4520 -5296 0
-4517 -5865 0
-4518 -5866 0
-4519 -5867 0
-4520 -5868 0
-4517 -5377 0
-4518 -5378 0
-4519 -5379 0
-4520 -5380 0
-4517 -5385 0
-4518 -5386 0
-4519 -5387 0
-4520 -5388 0
-4517 -5393 0
-4518 -5394 0
-4519 -5395 0
-4520 -5396 0
-4517 -5897 0
-4518 -5898 0
-4519 -5899 0
-4520 -5900 0
-4517 -5401 0
-4518 -5402 0
-4519 -5403 0
-4520 -5404 0
-4517 -5901 0
-4518 -5902 0
-4519 -5903 0
-4520 -5904 0
-4517 -5413 0
-4518 -5414 0
-4519 -5415 0
-4520 -5416 0
-4517 -5429 0
-4518 -5430 0
-4519 -5431 0
-4520 -5432 0
-4517 -5473 0
-4518 -5474 0
-4519 -5475 0
-4520 -5476 0
-4517 -5493 0
-4518 -5494 0
-4519 -5495 0
-4520 -5496 0
-4517 -5497 0
-4518 -5498 0
-4519 -5499 0
-4520 -5500 0
-4517 -5009 0
-4518 -5010 0
-4519 -5011 0
-4520 -5012 0
-4517 -4521 0
-4518 -4522 0
-4519 -4523 0
-4520 -4524 0
-4517 -4525 0
-4518 -4526 0
-4519 -4527 0
-4520 -4528 0
-4517 -4529 0
-4518 -4530 0
-4519 -4531 0
-4520 -4532 0
-4517 -5045 0
-4518 -5046 0
-4519 -5047 0
-4520 -5048 0
-4517 -6065 0
-4518 -6066 0
-4519 -6067 0
-4520 -6068 0
-4517 -4557 0
-4518 -4558 0
-4519 -4559 0
-4520 -4560 0
-4517 -6073 0
-4518 -6074 0
-4519 -6075 0
-4520 -6076 0
-4517 -5077 0
-4518 -5078 0
-4519 -5079 0
-4520 -5080 0
-4521 -5297 0
-4522 -5298 0
-4523 -5299 0
-4524 -5300 0
-4521 -6069 0
-4522 -6070 0
-4523 -6071 0
-4524 -6072 0
-4521 -5705 0
-4522 -5706 0
-4523 -5707 0
-4524 -5708 0
-4525 -5157 0
-4526 -5158 0
-4527 -5159 0
-4528 -5160 0
-4525 -5173 0
-4526 -5174 0
-4527 -5175 0
-4528 -5176 0
-4525 -5301 0
-4526 -5302 0
-4527 -5303 0
-4528 -5304 0
-4525 -5405 0
-4526 -5406 0
-4527 -5407 0
-4528 -5408 0
-4525 -4901 0
-4526 -4902 0
-4527 -4903 0
-4528 -4904 0
-4525 -5497 0
-4526 -5498 0
-4527 -5499 0
-4528 -5500 0
-4525 -4533 0
-4526 -4534 0
-4527 -4535 0
-4528 -4536 0
-4525 -5053 0
-4526 -5054 0
-4527 -5055 0
-4528 -5056 0
-4525 -5581 0
-4526 -5582 0
-4527 -5583 0
-4528 -5584 0
-4525 -5585 0
-4526 -5586 0
-4527 -5587 0
-4528 -5588 0
-4529 -5137 0
-4530 -5138 0
-4531 -5139 0
-4532 -5140 0
-4529 -5221 0
-4530 -5222 0
-4531 -5223 0
-4532 -5224 0
-4529 -5309 0
-4530 -5310 0
-4531 -5311 0
-4532 -5312 0
-4529 -4845 0
-4530 -4846 0
-4531 -4847 0
-4532 -4848 0
-4529 -4913 0
-4530 -4914 0
-4531 -4915 0
-4532 -4916 0
-4529 -5437 0
-4530 -5438 0
-4531 -5439 0
-4532 -5440 0
-4529 -5981 0
-4530 -5982 0
-4531 -5983 0
-4532 -5984 0
-4529 -5989 0
-4530 -5990 0
-4531 -5991 0
-4532 -5992 0
-4529 -5025 0
-4530 -5026 0
-4531 -5027 0
-4532 -5028 0
-4529 -4533 0
-4530 -4534 0
-4531 -4535 0
-4532 -4536 0
-4529 -6073 0
-4530 -6074 0
-4531 -6075 0
-4532 -6076 0
-4533 -5385 0
-4534 -5386 0
-4535 -5387 0
-4536 -5388 0
-4533 -5901 0
-4534 -5902 0
-4535 -5903 0
-4536 -5904 0
-4533 -5441 0
-4534 -5442 0
-4535 -5443 0
-4536 -5444 0
-4533 -5317 0
-4534 -5318 0
-4535 -5319 0
-4536 -5320 0
-4537 -4653 0
-4538 -4654 0
-4539 -4655 0
-4540 -4656 0
-4537 -5745 0
-4538 -5746 0
-4539 -5747 0
-4540 -5748 0
-4537 -5273 0
-4538 -5274 0
-4539 -5275 0
-4540 -5276 0
-4537 -5401 0
-4538 -5402 0
-4539 -5403 0
-4540 -5404 0
-4537 -5425 0
-4538 -5426 0
-4539 -5427 0
-4540 -5428 0
-4537 -5037 0
-4538 -5038 0
-4539 -5039 0
-4540 -5040 0
-4537 -4541 0
-4538 -4542 0
-4539 -4543 0
-4540 -4544 0
-4537 -4553 0
-4538 -4554 0
-4539 -4555 0
-4540 -4556 0
-4537 -5593 0
-4538 -5594 0
-4539 -5595 0
-4540 -5596 0
-4537 -6109 0
-4538 -6110 0
-4539 -6111 0
-4540 -6112 0
-4537 -4593 0
-4538 -4594 0
-4539 -4595 0
-4540 -4596 0
-4541 -4661 0
-4542 -4662 0
-4543 -4663 0
-4544 -4664 0
-4541 -5197 0
-4542 -5198 0
-4543 -5199 0
-4544 -5200 0
-4541 -5753 0
-4542 -5754 0
-4543 -5755 0
-4544 -5756 0
-4541 -5349 0
-4542 -5350 0
-4543 -5351 0
-4544 -5352 0
-4541 -5405 0
-4542 -5406 0
-4543 -5407 0
-4544 -5408 0
-4541 -5433 0
-4542 -5434 0
-4543 -5435 0
-4544 -5436 0
-4541 -4545 0
-4542 -4546 0
-4543 -4547 0
-4544 -4548 0
-4541 -5589 0
-4542 -5590 0
-4543 -5591 0
-4544 -5592 0
-4541 -5093 0
-4542 -5094 0
-4543 -5095 0
-4544 -5096 0
-4545 -5277 0
-4546 -5278 0
-4547 -5279 0
-4548 -5280 0
-4545 -5397 0
-4546 -5398 0
-4547 -5399 0
-4548 -5400 0
-4545 -4673 0
-4546 -4674 0
-4547 -4675 0
-4548 -4676 0
-4545 -5313 0
-4546 -5314 0
-4547 -5315 0
-4548 -5316 0
-4549 -4661 0
-4550 -4662 0
-4551 -4663 0
-4552 -4664 0
-4549 -5765 0
-4550 -5766 0
-4551 -5767 0
-4552 -5768 0
-4549 -4877 0
-4550 -4878 0
-4551 -4879 0
-4552 -4880 0
-4549 -5905 0
-4550 -5906 0
-4551 -5907 0
-4552 -5908 0
-4549 -4893 0
-4550 -4894 0
-4551 -4895 0
-4552 -4896 0
-4549 -5409 0
-4550 -5410 0
-4551 -5411 0
-4552 -5412 0
-4549 -5433 0
-4550 -5434 0
-4551 -5435 0
-4552 -5436 0
-4549 -5445 0
-4550 -5446 0
-4551 -5447 0
-4552 -5448 0
-4549 -6009 0
-4550 -6010 0
-4551 -6011 0
-4552 -6012 0
-4549 -4557 0
-4550 -4558 0
-4551 -4559 0
-4552 -4560 0
-4549 -5597 0
-4550 -5598 0
-4551 -5599 0
-4552 -5600 0
-4549 -5097 0
-4550 -5098 0
-4551 -5099 0
-4552 -5100 0
-4549 -6137 0
-4550 -6138 0
-4551 -6139 0
-4552 -6140 0
-4553 -4669 0
-4554 -4670 0
-4555 -4671 0
-4556 -4672 0
-4553 -5713 0
-4554 -5714 0
-4555 -5715 0
-4556 -5716 0
-4553 -5773 0
-4554 -5774 0
-4555 -5775 0
-4556 -5776 0
-4553 -5277 0
-4554 -5278 0
-4555 -5279 0
-4556 -5280 0
-4553 -4937 0
-4554 -4938 0
-4555 -4939 0
-4556 -4940 0
-4553 -5453 0
-4554 -5454 0
-4555 -5455 0
-4556 -5456 0
-4553 -5053 0
-4554 -5054 0
-4555 -5055 0
-4556 -5056 0
-4553 -4557 0
-4554 -4558 0
-4555 -4559 0
-4556 -4560 0
-4553 -5601 0
-4554 -5602 0
-4555 -5603 0
-4556 -5604 0
-4553 -4601 0
-4554 -4602 0
-4555 -4603 0
-4556 -4604 0
-4557 -4673 0
-4558 -4674 0
-4559 -4675 0
-4560 -4676 0
-4557 -5201 0
-4558 -5202 0
-4559 -5203 0
-4560 -5204 0
-4557 -5241 0
-4558 -5242 0
-4559 -5243 0
-4560 -5244 0
-4557 -5777 0
-4558 -5778 0
-4559 -5779 0
-4560 -5780 0
-4557 -4769 0
-4558 -4770 0
-4559 -4771 0
-4560 -4772 0
-4557 -5353 0
-4558 -5354 0
-4559 -5355 0
-4560 -5356 0
-4557 -5909 0
-4558 -5910 0
-4559 -5911 0
-4560 -5912 0
-4557 -4941 0
-4558 -4942 0
-4559 -4943 0
-4560 -4944 0
-4557 -5045 0
-4558 -5046 0
-4559 -5047 0
-4560 -5048 0
-4557 -6141 0
-4558 -6142 0
-4559 -6143 0
-4560 -6144 0
-4561 -4653 0
-4562 -4654 0
-4563 -4655 0
-4564 -4656 0
-4561 -4665 0
-4562 -4666 0
-4563 -4667 0
-4564 -4668 0
-4561 -5205 0
-4562 -5206 0
-4563 -5207 0
-4564 -5208 0
-4561 -5217 0
-4562 -5218 0
-4563 -5219 0
-4564 -5220 0
-4561 -5293 0
-4562 -5294 0
-4563 -5295 0
-4564 -5296 0
-4561 -5833 0
-4562 -5834 0
-4563 -5835 0
-4564 -5836 0
-4561 -5469 0
-4562 -5470 0
-4563 -5471 0
-4564 -5472 0
-4561 -4565 0
-4562 -4566 0
-4563 -4567 0
-4564 -4568 0
-4561 -5081 0
-4562 -5082 0
-4563 -5083 0
-4564 -5084 0
-4565 -4661 0
-4566 -4662 0
-4567 -4663 0
-4568 -4664 0
-4565 -4677 0
-4566 -4678 0
-4567 -4679 0
-4568 -4680 0
-4565 -5213 0
-4566 -5214 0
-4567 -5215 0
-4568 -5216 0
-4565 -5721 0
-4566 -5722 0
-4567 -5723 0
-4568 -5724 0
-4565 -4729 0
-4566 -4730 0
-4567 -4731 0
-4568 -4732 0
-4565 -5229 0
-4566 -5230 0
-4567 -5231 0
-4568 -5232 0
-4565 -5301 0
-4566 -5302 0
-4567 -5303 0
-4568 -5304 0
-4565 -5357 0
-4566 -5358 0
-4567 -5359 0
-4568 -5360 0
-4565 -5089 0
-4566 -5090 0
-4567 -5091 0
-4568 -5092 0
-4565 -4605 0
-4566 -4606 0
-4567 -4607 0
-4568 -4608 0
-4569 -5433 0
-4570 -5434 0
-4571 -5435 0
-4572 -5436 0
-4569 -5061 0
-4570 -5062 0
-4571 -5063 0
-4572 -5064 0
-4569 -4573 0
-4570 -4574 0
-4571 -4575 0
-4572 -4576 0
-4573 -4901 0
-4574 -4902 0
-4575 -4903 0
-4576 -4904 0
-4573 -5437 0
-4574 -5438 0
-4575 -5439 0
-4576 -5440 0
-4573 -5453 0
-4574 -5454 0
-4575 -5455 0
-4576 -5456 0
-4573 -5065 0
-4574 -5066 0
-4575 -5067 0
-4576 -5068 0
-4573 -5109 0
-4574 -5110 0
-4575 -5111 0
-4576 -5112 0
-4577 -4609 0
-4578 -4610 0
-4579 -4611 0
-4580 -4612 0
-4577 -5249 0
-4578 -5250 0
-4579 -5251 0
-4580 -5252 0
-4577 -5233 0
-4578 -5234 0
-4579 -5235 0
-4580 -5236 0
-4577 -5717 0
-4578 -5718 0
-4579 -5719 0
-4580 -5720 0
-4577 -5725 0
-4578 -5726 0
-4579 -5727 0
-4580 -5728 0
-4581 -4685 0
-4582 -4686 0
-4583 -4687 0
-4584 -4688 0
-4581 -5841 0
-4582 -5842 0
-4583 -5843 0
-4584 -5844 0
-4581 -5097 0
-4582 -5098 0
-4583 -5099 0
-4584 -5100 0
-4581 -5877 0
-4582 -5878 0
-4583 -5879 0
-4584 -5880 0
-4581 -6141 0
-4582 -6142 0
-4583 -6143 0
-4584 -6144 0
-4585 -5333 0
-4586 -5334 0
-4587 -5335 0
-4588 -5336 0
-4585 -5217 0
-4586 -5218 0
-4587 -5219 0
-4588 -5220 0
-4589 -5561 0
-4590 -5562 0
-4591 -5563 0
-4592 -5564 0
-4589 -5081 0
-4590 -5082 0
-4591 -5083 0
-4592 -5084 0
-4589 -5333 0
-4590 -5334 0
-4591 -5335 0
-4592 -5336 0
-4589 -4705 0
-4590 -4706 0
-4591 -4707 0
-4592 -4708 0
-4593 -5121 0
-4594 -5122 0
-4595 -5123 0
-4596 -5124 0
-4593 -4633 0
-4594 -4634 0
-4595 -4635 0
-4596 -4636 0
-4593 -5729 0
-4594 -5730 0
-4595 -5731 0
-4596 -5732 0
-4593 -5261 0
-4594 -5262 0
-4595 -5263 0
-4596 -5264 0
-4593 -5793 0
-4594 -5794 0
-4595 -5795 0
-4596 -5796 0
-4593 -5465 0
-4594 -5466 0
-4595 -5467 0
-4596 -5468 0
-4593 -5993 0
-4594 -5994 0
-4595 -5995 0
-4596 -5996 0
-4593 -6085 0
-4594 -6086 0
-4595 -6087 0
-4596 -6088 0
-4593 -6101 0
-4594 -6102 0
-4595 -6103 0
-4596 -6104 0
-4593 -6117 0
-4594 -6118 0
-4595 -6119 0
-4596 -6120 0
-4593 -4601 0
-4594 -4602 0
-4595 -4603 0
-4596 -4604 0
-4597 -4609 0
-4598 -4610 0
-4599 -4611 0
-4600 -4612 0
-4597 -5913 0
-4598 -5914 0
-4599 -5915 0
-4600 -5916 0
-4597 -5609 0
-4598 -5610 0
-4599 -5611 0
-4600 -5612 0
-4597 -5745 0
-4598 -5746 0
-4599 -5747 0
-4600 -5748 0
-4597 -5741 0
-4598 -5742 0
-4599 -5743 0
-4600 -5744 0
-4597 -5105 0
-4598 -5106 0
-4599 -5107 0
-4600 -5108 0
-4597 -4601 0
-4598 -4602 0
-4599 -4603 0
-4600 -4604 0
-4597 -5757 0
-4598 -5758 0
-4599 -5759 0
-4600 -5760 0
-4601 -4613 0
-4602 -4614 0
-4603 -4615 0
-4604 -4616 0
-4601 -5745 0
-4602 -5746 0
-4603 -5747 0
-4604 -5748 0
-4601 -5749 0
-4602 -5750 0
-4603 -5751 0
-4604 -5752 0
-4601 -5273 0
-4602 -5274 0
-4603 -5275 0
-4604 -5276 0
-4601 -5797 0
-4602 -5798 0
-4603 -5799 0
-4604 -5800 0
-4601 -5369 0
-4602 -5370 0
-4603 -5371 0
-4604 -5372 0
-4601 -5445 0
-4602 -5446 0
-4603 -5447 0
-4604 -5448 0
-4601 -5997 0
-4602 -5998 0
-4603 -5999 0
-4604 -6000 0
-4601 -4985 0
-4602 -4986 0
-4603 -4987 0
-4604 -4988 0
-4601 -6109 0
-4602 -6110 0
-4603 -6111 0
-4604 -6112 0
-4601 -6121 0
-4602 -6122 0
-4603 -6123 0
-4604 -6124 0
-4605 -5249 0
-4606 -5250 0
-4607 -5251 0
-4608 -5252 0
-4605 -5777 0
-4606 -5778 0
-4607 -5779 0
-4608 -5780 0
-4605 -4693 0
-4606 -4694 0
-4607 -4695 0
-4608 -4696 0
-4609 -5889 0
-4610 -5890 0
-4611 -5891 0
-4612 -5892 0
-4609 -4613 0
-4610 -4614 0
-4611 -4615 0
-4612 -4616 0
-4609 -5769 0
-4610 -5770 0
-4611 -5771 0
-4612 -5772 0
-4609 -5773 0
-4610 -5774 0
-4611 -5775 0
-4612 -5776 0
-4609 -5357 0
-4610 -5358 0
-4611 -5359 0
-4612 -5360 0
-4609 -5117 0
-4610 -5118 0
-4611 -5119 0
-4612 -5120 0
-4613 -5773 0
-4614 -5774 0
-4615 -5775 0
-4616 -5776 0
-4613 -5777 0
-4614 -5778 0
-4615 -5779 0
-4616 -5780 0
-4613 -5277 0
-4614 -5278 0
-4615 -5279 0
-4616 -5280 0
-4617 -5129 0
-4618 -5130 0
-4619 -5131 0
-4620 -5132 0
-4617 -5385 0
-4618 -5386 0
-4619 -5387 0
-4620 -5388 0
-4617 -4637 0
-4618 -4638 0
-4619 -4639 0
-4620 -4640 0
-4617 -5169 0
-4618 -5170 0
-4619 -5171 0
-4620 -5172 0
-4617 -4709 0
-4618 -4710 0
-4619 -4711 0
-4620 -4712 0
-4617 -5613 0
-4618 -5614 0
-4619 -5615 0
-4620 -5616 0
-4621 -5145 0
-4622 -5146 0
-4623 -5147 0
-4624 -5148 0
-4621 -5293 0
-4622 -5294 0
-4623 -5295 0
-4624 -5296 0
-4621 -5421 0
-4622 -5422 0
-4623 -5423 0
-4624 -5424 0
-4621 -5049 0
-4622 -5050 0
-4623 -5051 0
-4624 -5052 0
-4621 -4721 0
-4622 -4722 0
-4623 -4723 0
-4624 -4724 0
-4625 -4629 0
-4626 -4630 0
-4627 -4631 0
-4628 -4632 0
-4625 -4633 0
-4626 -4634 0
-4627 -4635 0
-4628 -4636 0
-4625 -5665 0
-4626 -5666 0
-4627 -5667 0
-4628 -5668 0
-4625 -5165 0
-4626 -5166 0
-4627 -5167 0
-4628 -5168 0
-4625 -4661 0
-4626 -4662 0
-4627 -4663 0
-4628 -4664 0
-4625 -5205 0
-4626 -5206 0
-4627 -5207 0
-4628 -5208 0
-4625 -5281 0
-4626 -5282 0
-4627 -5283 0
-4628 -5284 0
-4625 -4841 0
-4626 -4842 0
-4627 -4843 0
-4628 -4844 0
-4625 -5353 0
-4626 -5354 0
-4627 -5355 0
-4628 -5356 0
-4625 -5425 0
-4626 -5426 0
-4627 -5427 0
-4628 -5428 0
-4625 -4969 0
-4626 -4970 0
-4627 -4971 0
-4628 -4972 0
-4625 -6005 0
-4626 -6006 0
-4627 -6007 0
-4628 -6008 0
-4625 -6025 0
-4626 -6026 0
-4627 -6027 0
-4628 -6028 0
-4625 -5057 0
-4626 -5058 0
-4627 -5059 0
-4628 -5060 0
-4629 -5153 0
-4630 -5154 0
-4631 -5155 0
-4632 -5156 0
-4629 -5169 0
-4630 -5170 0
-4631 -5171 0
-4632 -5172 0
-4629 -4665 0
-4630 -4666 0
-4631 -4667 0
-4632 -4668 0
-4629 -4721 0
-4630 -4722 0
-4631 -4723 0
-4632 -4724 0
-4629 -5825 0
-4630 -5826 0
-4631 -5827 0
-4632 -5828 0
-4629 -5389 0
-4630 -5390 0
-4631 -5391 0
-4632 -5392 0
-4629 -6009 0
-4630 -6010 0
-4631 -6011 0
-4632 -6012 0
-4629 -5061 0
-4630 -5062 0
-4631 -5063 0
-4632 -5064 0
-4633 -5661 0
-4634 -5662 0
-4635 -5663 0
-4636 -5664 0
-4633 -5161 0
-4634 -5162 0
-4635 -5163 0
-4636 -5164 0
-4633 -4673 0
-4634 -4674 0
-4635 -4675 0
-4636 -4676 0
-4633 -5213 0
-4634 -5214 0
-4635 -5215 0
-4636 -5216 0
-4633 -5901 0
-4634 -5902 0
-4635 -5903 0
-4636 -5904 0
-4633 -5433 0
-4634 -5434 0
-4635 -5435 0
-4636 -5436 0
-4633 -5945 0
-4634 -5946 0
-4635 -5947 0
-4636 -5948 0
-4637 -5169 0
-4638 -5170 0
-4639 -5171 0
-4640 -5172 0
-4637 -5221 0
-4638 -5222 0
-4639 -5223 0
-4640 -5224 0
-4637 -4725 0
-4638 -4726 0
-4639 -4727 0
-4640 -4728 0
-4641 -5021 0
-4642 -5022 0
-4643 -5023 0
-4644 -5024 0
-4641 -5445 0
-4642 -5446 0
-4643 -5447 0
-4644 -5448 0
-4645 -5917 0
-4646 -5918 0
-4647 -5919 0
-4648 -5920 0
-4645 -4649 0
-4646 -4650 0
-4647 -4651 0
-4648 -4652 0
-4645 -4661 0
-4646 -4662 0
-4647 -4663 0
-4648 -4664 0
-4645 -6089 0
-4646 -6090 0
-4647 -6091 0
-4648 -6092 0
-4649 -5689 0
-4650 -5690 0
-4651 -5691 0
-4652 -5692 0
-4649 -4673 0
-4650 -4674 0
-4651 -4675 0
-4652 -4676 0
-4649 -5841 0
-4650 -5842 0
-4651 -5843 0
-4652 -5844 0
-4649 -5377 0
-4650 -5378 0
-4651 -5379 0
-4652 -5380 0
-4649 -5453 0
-4650 -5454 0
-4651 -5455 0
-4652 -5456 0
-4649 -6093 0
-4650 -6094 0
-4651 -6095 0
-4652 -6096 0
-4653 -5501 0
-4654 -5502 0
-4655 -5503 0
-4656 -5504 0
-4653 -5417 0
-4654 -5418 0
-4655 -5419 0
-4656 -5420 0
-4653 -4661 0
-4654 -4662 0
-4655 -4663 0
-4656 -4664 0
-4653 -5049 0
-4654 -5050 0
-4655 -5051 0
-4656 -5052 0
-4653 -5845 0
-4654 -5846 0
-4655 -5847 0
-4656 -5848 0
-4657 -6033 0
-4658 -6034 0
-4659 -6035 0
-4660 -6036 0
-4657 -4661 0
-4658 -4662 0
-4659 -4663 0
-4660 -4664 0
-4657 -4669 0
-4658 -4670 0
-4659 -4671 0
-4660 -4672 0
-4657 -5805 0
-4658 -5806 0
-4659 -5807 0
-4660 -5808 0
-4657 -5357 0
-4658 -5358 0
-4659 -5359 0
-4660 -5360 0
-4657 -5213 0
-4658 -5214 0
-4659 -5215 0
-4660 -5216 0
-4657 -4729 0
-4658 -4730 0
-4659 -4731 0
-4660 -4732 0
-4661 -4665 0
-4662 -4666 0
-4663 -4667 0
-4664 -4668 0
-4661 -4673 0
-4662 -4674 0
-4663 -4675 0
-4664 -4676 0
-4661 -4685 0
-4662 -4686 0
-4663 -4687 0
-4664 -4688 0
-4661 -4693 0
-4662 -4694 0
-4663 -4695 0
-4664 -4696 0
-4661 -5205 0
-4662 -5206 0
-4663 -5207 0
-4664 -5208 0
-4661 -5217 0
-4662 -5218 0
-4663 -5219 0
-4664 -5220 0
-4661 -4733 0
-4662 -4734 0
-4663 -4735 0
-4664 -4736 0
-4661 -5245 0
-4662 -5246 0
-4663 -5247 0
-4664 -5248 0
-4661 -5805 0
-4662 -5806 0
-4663 -5807 0
-4664 -5808 0
-4661 -5809 0
-4662 -5810 0
-4663 -5811 0
-4664 -5812 0
-4661 -5849 0
-4662 -5850 0
-4663 -5851 0
-4664 -5852 0
-4661 -4849 0
-4662 -4850 0
-4663 -4851 0
-4664 -4852 0
-4661 -5373 0
-4662 -5374 0
-4663 -5375 0
-4664 -5376 0
-4661 -5905 0
-4662 -5906 0
-4663 -5907 0
-4664 -5908 0
-4661 -5913 0
-4662 -5914 0
-4663 -5915 0
-4664 -5916 0
-4661 -5921 0
-4662 -5922 0
-4663 -5923 0
-4664 -5924 0
-4661 -5421 0
-4662 -5422 0
-4663 -5423 0
-4664 -5424 0
-4661 -5465 0
-4662 -5466 0
-4663 -5467 0
-4664 -5468 0
-4661 -5481 0
-4662 -5482 0
-4663 -5483 0
-4664 -5484 0
-4661 -5485 0
-4662 -5486 0
-4663 -5487 0
-4664 -5488 0
-4661 -5493 0
-4662 -5494 0
-4663 -5495 0
-4664 -5496 0
-4661 -5501 0
-4662 -5502 0
-4663 -5503 0
-4664 -5504 0
-4661 -4997 0
-4662 -4998 0
-4663 -4999 0
-4664 -5000 0
-4661 -5505 0
-4662 -5506 0
-4663 -5507 0
-4664 -5508 0
-4661 -6089 0
-4662 -6090 0
-4663 -6091 0
-4664 -6092 0
-4665 -4677 0
-4666 -4678 0
-4667 -4679 0
-4668 -4680 0
-4665 -5221 0
-4666 -5222 0
-4667 -5223 0
-4668 -5224 0
-4665 -5809 0
-4666 -5810 0
-4667 -5811 0
-4668 -5812 0
-4665 -5813 0
-4666 -5814 0
-4667 -5815 0
-4668 -5816 0
-4665 -5381 0
-4666 -5382 0
-4667 -5383 0
-4668 -5384 0
-4665 -5001 0
-4666 -5002 0
-4667 -5003 0
-4668 -5004 0
-4665 -6049 0
-4666 -6050 0
-4667 -6051 0
-4668 -6052 0
-4665 -5049 0
-4666 -5050 0
-4667 -5051 0
-4668 -5052 0
-4669 -5853 0
-4670 -5854 0
-4671 -5855 0
-4672 -5856 0
-4669 -5693 0
-4670 -5694 0
-4671 -5695 0
-4672 -5696 0
-4669 -4673 0
-4670 -4674 0
-4671 -4675 0
-4672 -4676 0
-4669 -5817 0
-4670 -5818 0
-4671 -5819 0
-4672 -5820 0
-4669 -5209 0
-4670 -5210 0
-4671 -5211 0
-4672 -5212 0
-4669 -5349 0
-4670 -5350 0
-4671 -5351 0
-4672 -5352 0
-4669 -5361 0
-4670 -5362 0
-4671 -5363 0
-4672 -5364 0
-4673 -4677 0
-4674 -4678 0
-4675 -4679 0
-4676 -4680 0
-4673 -4681 0
-4674 -4682 0
-4675 -4683 0
-4676 -4684 0
-4673 -4689 0
-4674 -4690 0
-4675 -4691 0
-4676 -4692 0
-4673 -4697 0
-4674 -4698 0
-4675 -4699 0
-4676 -4700 0
-4673 -4729 0
-4674 -4730 0
-4675 -4731 0
-4676 -4732 0
-4673 -5213 0
-4674 -5214 0
-4675 -5215 0
-4676 -5216 0
-4673 -4737 0
-4674 -4738 0
-4675 -4739 0
-4676 -4740 0
-4673 -5229 0
-4674 -5230 0
-4675 -5231 0
-4676 -5232 0
-4673 -5249 0
-4674 -5250 0
-4675 -5251 0
-4676 -5252 0
-4673 -5817 0
-4674 -5818 0
-4675 -5819 0
-4676 -5820 0
-4673 -5821 0
-4674 -5822 0
-4675 -5823 0
-4676 -5824 0
-4673 -5857 0
-4674 -5858 0
-4675 -5859 0
-4676 -5860 0
-4673 -5357 0
-4674 -5358 0
-4675 -5359 0
-4676 -5360 0
-4673 -5909 0
-4674 -5910 0
-4675 -5911 0
-4676 -5912 0
-4673 -5917 0
-4674 -5918 0
-4675 -5919 0
-4676 -5920 0
-4673 -5925 0
-4674 -5926 0
-4675 -5927 0
-4676 -5928 0
-4673 -5429 0
-4674 -5430 0
-4675 -5431 0
-4676 -5432 0
-4673 -5469 0
-4674 -5470 0
-4675 -5471 0
-4676 -5472 0
-4673 -5489 0
-4674 -5490 0
-4675 -5491 0
-4676 -5492 0
-4673 -5497 0
-4674 -5498 0
-4675 -5499 0
-4676 -5500 0
-4673 -5505 0
-4674 -5506 0
-4675 -5507 0
-4676 -5508 0
-4673 -6093 0
-4674 -6094 0
-4675 -6095 0
-4676 -6096 0
-4673 -6097 0
-4674 -6098 0
-4675 -6099 0
-4676 -6100 0
-4677 -5821 0
-4678 -5822 0
-4679 -5823 0
-4680 -5824 0
-4677 -5217 0
-4678 -5218 0
-4679 -5219 0
-4680 -5220 0
-4681 -5693 0
-4682 -5694 0
-4683 -5695 0
-4684 -5696 0
-4681 -5361 0
-4682 -5362 0
-4683 -5363 0
-4684 -5364 0
-4681 -5117 0
-4682 -5118 0
-4683 -5119 0
-4684 -5120 0
-4685 -6025 0
-4686 -6026 0
-4687 -6027 0
-4688 -6028 0
-4685 -5825 0
-4686 -5826 0
-4687 -5827 0
-4688 -5828 0
-4685 -5449 0
-4686 -5450 0
-4687 -5451 0
-4688 -5452 0
-4685 -4689 0
-4686 -4690 0
-4687 -4691 0
-4688 -4692 0
-4685 -5353 0
-4686 -5354 0
-4687 -5355 0
-4688 -5356 0
-4689 -5921 0
-4690 -5922 0
-4691 -5923 0
-4692 -5924 0
-4689 -5697 0
-4690 -5698 0
-4691 -5699 0
-4692 -5700 0
-4689 -6097 0
-4690 -6098 0
-4691 -6099 0
-4692 -6100 0
-4689 -5481 0
-4690 -5482 0
-4691 -5483 0
-4692 -5484 0
-4693 -5245 0
-4694 -5246 0
-4695 -5247 0
-4696 -5248 0
-4693 -4697 0
-4694 -4698 0
-4695 -4699 0
-4696 -4700 0
-4697 -5249 0
-4698 -5250 0
-4699 -5251 0
-4700 -5252 0
-4697 -5841 0
-4698 -5842 0
-4699 -5843 0
-4700 -5844 0
-4701 -5413 0
-4702 -5414 0
-4703 -5415 0
-4704 -5416 0
-4701 -5293 0
-4702 -5294 0
-4703 -5295 0
-4704 -5296 0
-4701 -5045 0
-4702 -5046 0
-4703 -5047 0
-4704 -5048 0
-4701 -5077 0
-4702 -5078 0
-4703 -5079 0
-4704 -5080 0
-4701 -5493 0
-4702 -5494 0
-4703 -5495 0
-4704 -5496 0
-4705 -5257 0
-4706 -5258 0
-4707 -5259 0
-4708 -5260 0
-4705 -5153 0
-4706 -5154 0
-4707 -5155 0
-4708 -5156 0
-4705 -4717 0
-4706 -4718 0
-4707 -4719 0
-4708 -4720 0
-4705 -5293 0
-4706 -5294 0
-4707 -5295 0
-4708 -5296 0
-4705 -5493 0
-4706 -5494 0
-4707 -5495 0
-4708 -5496 0
-4705 -5077 0
-4706 -5078 0
-4707 -5079 0
-4708 -5080 0
-4709 -5265 0
-4710 -5266 0
-4711 -5267 0
-4712 -5268 0
-4709 -5185 0
-4710 -5186 0
-4711 -5187 0
-4712 -5188 0
-4709 -5317 0
-4710 -5318 0
-4711 -5319 0
-4712 -5320 0
-4709 -5721 0
-4710 -5722 0
-4711 -5723 0
-4712 -5724 0
-4709 -4725 0
-4710 -4726 0
-4711 -4727 0
-4712 -4728 0
-4713 -5293 0
-4714 -5294 0
-4715 -5295 0
-4716 -5296 0
-4713 -5421 0
-4714 -5422 0
-4715 -5423 0
-4716 -5424 0
-4713 -5885 0
-4714 -5886 0
-4715 -5887 0
-4716 -5888 0
-4713 -6053 0
-4714 -6054 0
-4715 -6055 0
-4716 -6056 0
-4717 -5145 0
-4718 -5146 0
-4719 -5147 0
-4720 -5148 0
-4717 -5293 0
-4718 -5294 0
-4719 -5295 0
-4720 -5296 0
-4717 -5353 0
-4718 -5354 0
-4719 -5355 0
-4720 -5356 0
-4717 -5421 0
-4718 -5422 0
-4719 -5423 0
-4720 -5424 0
-4717 -4941 0
-4718 -4942 0
-4719 -4943 0
-4720 -4944 0
-4717 -6129 0
-4718 -6130 0
-4719 -6131 0
-4720 -6132 0
-4721 -5761 0
-4722 -5762 0
-4723 -5763 0
-4724 -5764 0
-4721 -5777 0
-4722 -5778 0
-4723 -5779 0
-4724 -5780 0
-4721 -5317 0
-4722 -5318 0
-4723 -5319 0
-4724 -5320 0
-4721 -5889 0
-4722 -5890 0
-4723 -5891 0
-4724 -5892 0
-4721 -5413 0
-4722 -5414 0
-4723 -5415 0
-4724 -5416 0
-4721 -5445 0
-4722 -5446 0
-4723 -5447 0
-4724 -5448 0
-4721 -4977 0
-4722 -4978 0
-4723 -4979 0
-4724 -4980 0
-4725 -4965 0
-4726 -4966 0
-4727 -4967 0
-4728 -4968 0
-4725 -5777 0
-4726 -5778 0
-4727 -5779 0
-4728 -5780 0
-4725 -5317 0
-4726 -5318 0
-4727 -5319 0
-4728 -5320 0
-4725 -5365 0
-4726 -5366 0
-4727 -5367 0
-4728 -5368 0
-4729 -5217 0
-4730 -5218 0
-4731 -5219 0
-4732 -5220 0
-4729 -5205 0
-4730 -5206 0
-4731 -5207 0
-4732 -5208 0
-4733 -4737 0
-4734 -4738 0
-4735 -4739 0
-4736 -4740 0
-4733 -5797 0
-4734 -5798 0
-4735 -5799 0
-4736 -5800 0
-4733 -5921 0
-4734 -5922 0
-4735 -5923 0
-4736 -5924 0
-4737 -5925 0
-4738 -5926 0
-4739 -5927 0
-4740 -5928 0
-4737 -5977 0
-4738 -5978 0
-4739 -5979 0
-4740 -5980 0
-4741 -4753 0
-4742 -4754 0
-4743 -4755 0
-4744 -4756 0
-4741 -6041 0
-4742 -6042 0
-4743 -6043 0
-4744 -6044 0
-4745 -4757 0
-4746 -4758 0
-4747 -4759 0
-4748 -4760 0
-4745 -5533 0
-4746 -5534 0
-4747 -5535 0
-4748 -5536 0
-4745 -5917 0
-4746 -5918 0
-4747 -5919 0
-4748 -5920 0
-4749 -5537 0
-4750 -5538 0
-4751 -5539 0
-4752 -5540 0
-4753 -4761 0
-4754 -4762 0
-4755 -4763 0
-4756 -4764 0
-4753 -5617 0
-4754 -5618 0
-4755 -5619 0
-4756 -5620 0
-4757 -5849 0
-4758 -5850 0
-4759 -5851 0
-4760 -5852 0
-4757 -5997 0
-4758 -5998 0
-4759 -5999 0
-4760 -6000 0
-4757 -6013 0
-4758 -6014 0
-4759 -6015 0
-4760 -6016 0
-4757 -5541 0
-4758 -5542 0
-4759 -5543 0
-4760 -5544 0
-4757 -5609 0
-4758 -5610 0
-4759 -5611 0
-4760 -5612 0
-4765 -5565 0
-4766 -5566 0
-4767 -5567 0
-4768 -5568 0
-4769 -4773 0
-4770 -4774 0
-4771 -4775 0
-4772 -4776 0
-4769 -4789 0
-4770 -4790 0
-4771 -4791 0
-4772 -4792 0
-4769 -5845 0
-4770 -5846 0
-4771 -5847 0
-4772 -5848 0
-4769 -4825 0
-4770 -4826 0
-4771 -4827 0
-4772 -4828 0
-4769 -5593 0
-4770 -5594 0
-4771 -5595 0
-4772 -5596 0
-4773 -5533 0
-4774 -5534 0
-4775 -5535 0
-4776 -5536 0
-4773 -5753 0
-4774 -5754 0
-4775 -5755 0
-4776 -5756 0
-4777 -4885 0
-4778 -4886 0
-4779 -4887 0
-4780 -4888 0
-4781 -4881 0
-4782 -4882 0
-4783 -4883 0
-4784 -4884 0
-4781 -4785 0
-4782 -4786 0
-4783 -4787 0
-4784 -4788 0
-4781 -5981 0
-4782 -5982 0
-4783 -5983 0
-4784 -5984 0
-4785 -4885 0
-4786 -4886 0
-4787 -4887 0
-4788 -4888 0
-4785 -4801 0
-4786 -4802 0
-4787 -4803 0
-4788 -4804 0
-4785 -5985 0
-4786 -5986 0
-4787 -5987 0
-4788 -5988 0
-4789 -5509 0
-4790 -5510 0
-4791 -5511 0
-4792 -5512 0
-4789 -5533 0
-4790 -5534 0
-4791 -5535 0
-4792 -5536 0
-4793 -5161 0
-4794 -5162 0
-4795 -5163 0
-4796 -5164 0
-4793 -5733 0
-4794 -5734 0
-4795 -5735 0
-4796 -5736 0
-4793 -5589 0
-4794 -5590 0
-4795 -5591 0
-4796 -5592 0
-4793 -4837 0
-4794 -4838 0
-4795 -4839 0
-4796 -4840 0
-4797 -6053 0
-4798 -6054 0
-4799 -6055 0
-4800 -6056 0
-4797 -5829 0
-4798 -5830 0
-4799 -5831 0
-4800 -5832 0
-4797 -4809 0
-4798 -4810 0
-4799 -4811 0
-4800 -4812 0
-4797 -4817 0
-4798 -4818 0
-4799 -4819 0
-4800 -4820 0
-4797 -5737 0
-4798 -5738 0
-4799 -5739 0
-4800 -5740 0
-4797 -5745 0
-4798 -5746 0
-4799 -5747 0
-4800 -5748 0
-4801 -5553 0
-4802 -5554 0
-4803 -5555 0
-4804 -5556 0
-4801 -4933 0
-4802 -4934 0
-4803 -4935 0
-4804 -4936 0
-4801 -5581 0
-4802 -5582 0
-4803 -5583 0
-4804 -5584 0
-4801 -5597 0
-4802 -5598 0
-4803 -5599 0
-4804 -5600 0
-4805 -5529 0
-4806 -5530 0
-4807 -5531 0
-4808 -5532 0
-4805 -4809 0
-4806 -4810 0
-4807 -4811 0
-4808 -4812 0
-4805 -4937 0
-4806 -4938 0
-4807 -4939 0
-4808 -4940 0
-4805 -5741 0
-4806 -5742 0
-4807 -5743 0
-4808 -5744 0
-4805 -6005 0
-4806 -6006 0
-4807 -6007 0
-4808 -6008 0
-4809 -5745 0
-4810 -5746 0
-4811 -5747 0
-4812 -5748 0
-4809 -5753 0
-4810 -5754 0
-4811 -5755 0
-4812 -5756 0
-4809 -4813 0
-4810 -4814 0
-4811 -4815 0
-4812 -4816 0
-4809 -4825 0
-4810 -4826 0
-4811 -4827 0
-4812 -4828 0
-4809 -4845 0
-4810 -4846 0
-4811 -4847 0
-4812 -4848 0
-4809 -4925 0
-4810 -4926 0
-4811 -4927 0
-4812 -4928 0
-4809 -4941 0
-4810 -4942 0
-4811 -4943 0
-4812 -4944 0
-4809 -6009 0
-4810 -6010 0
-4811 -6011 0
-4812 -6012 0
-4813 -5753 0
-4814 -5754 0
-4815 -5755 0
-4816 -5756 0
-4813 -5969 0
-4814 -5970 0
-4815 -5971 0
-4816 -5972 0
-4813 -4949 0
-4814 -4950 0
-4815 -4951 0
-4816 -4952 0
-4813 -5529 0
-4814 -5530 0
-4815 -5531 0
-4816 -5532 0
-4813 -5581 0
-4814 -5582 0
-4815 -5583 0
-4816 -5584 0
-4817 -5761 0
-4818 -5762 0
-4819 -5763 0
-4820 -5764 0
-4817 -5773 0
-4818 -5774 0
-4819 -5775 0
-4820 -5776 0
-4817 -4821 0
-4818 -4822 0
-4819 -4823 0
-4820 -4824 0
-4817 -4825 0
-4818 -4826 0
-4819 -4827 0
-4820 -4828 0
-4817 -5877 0
-4818 -5878 0
-4819 -5879 0
-4820 -5880 0
-4817 -4945 0
-4818 -4946 0
-4819 -4947 0
-4820 -4948 0
-4817 -5549 0
-4818 -5550 0
-4819 -5551 0
-4820 -5552 0
-4821 -5765 0
-4822 -5766 0
-4823 -5767 0
-4824 -5768 0
-4821 -5777 0
-4822 -5778 0
-4823 -5779 0
-4824 -5780 0
-4821 -4949 0
-4822 -4950 0
-4823 -4951 0
-4824 -4952 0
-4821 -5989 0
-4822 -5990 0
-4823 -5991 0
-4824 -5992 0
-4821 -5613 0
-4822 -5614 0
-4823 -5615 0
-4824 -5616 0
-4825 -5773 0
-4826 -5774 0
-4827 -5775 0
-4828 -5776 0
-4825 -5781 0
-4826 -5782 0
-4827 -5783 0
-4828 -5784 0
-4825 -5841 0
-4826 -5842 0
-4827 -5843 0
-4828 -5844 0
-4825 -4961 0
-4826 -4962 0
-4827 -4963 0
-4828 -4964 0
-4829 -5601 0
-4830 -5602 0
-4831 -5603 0
-4832 -5604 0
-4829 -4833 0
-4830 -4834 0
-4831 -4835 0
-4832 -4836 0
-4829 -4845 0
-4830 -4846 0
-4831 -4847 0
-4832 -4848 0
-4833 -5565 0
-4834 -5566 0
-4835 -5567 0
-4836 -5568 0
-4833 -5593 0
-4834 -5594 0
-4835 -5595 0
-4836 -5596 0
-4833 -4961 0
-4834 -4962 0
-4835 -4963 0
-4836 -4964 0
-4837 -5009 0
-4838 -5010 0
-4839 -5011 0
-4840 -5012 0
-4837 -5213 0
-4838 -5214 0
-4839 -5215 0
-4840 -5216 0
-4841 -5641 0
-4842 -5642 0
-4843 -5643 0
-4844 -5644 0
-4841 -6109 0
-4842 -6110 0
-4843 -6111 0
-4844 -6112 0
-4841 -4849 0
-4842 -4850 0
-4843 -4851 0
-4844 -4852 0
-4845 -5649 0
-4846 -5650 0
-4847 -5651 0
-4848 -5652 0
-4845 -5793 0
-4846 -5794 0
-4847 -5795 0
-4848 -5796 0
-4845 -5553 0
-4846 -5554 0
-4847 -5555 0
-4848 -5556 0
-4845 -5609 0
-4846 -5610 0
-4847 -5611 0
-4848 -5612 0
-4849 -5689 0
-4850 -5690 0
-4851 -5691 0
-4852 -5692 0
-4849 -6117 0
-4850 -6118 0
-4851 -6119 0
-4852 -6120 0
-4849 -4945 0
-4850 -4946 0
-4851 -4947 0
-4852 -4948 0
-4853 -5509 0
-4854 -5510 0
-4855 -5511 0
-4856 -5512 0
-4853 -5645 0
-4854 -5646 0
-4855 -5647 0
-4856 -5648 0
-4853 -4881 0
-4854 -4882 0
-4855 -4883 0
-4856 -4884 0
-4853 -5881 0
-4854 -5882 0
-4855 -5883 0
-4856 -5884 0
-4853 -6065 0
-4854 -6066 0
-4855 -6067 0
-4856 -6068 0
-4853 -4857 0
-4854 -4858 0
-4855 -4859 0
-4856 -4860 0
-4857 -4885 0
-4858 -4886 0
-4859 -4887 0
-4860 -4888 0
-4857 -5513 0
-4858 -5514 0
-4859 -5515 0
-4860 -5516 0
-4857 -6069 0
-4858 -6070 0
-4859 -6071 0
-4860 -6072 0
-4861 -4865 0
-4862 -4866 0
-4863 -4867 0
-4864 -4868 0
-4861 -5641 0
-4862 -5642 0
-4863 -5643 0
-4864 -5644 0
-4861 -4881 0
-4862 -4882 0
-4863 -4883 0
-4864 -4884 0
-4861 -6101 0
-4862 -6102 0
-4863 -6103 0
-4864 -6104 0
-4865 -5637 0
-4866 -5638 0
-4867 -5639 0
-4868 -5640 0
-4865 -5645 0
-4866 -5646 0
-4867 -5647 0
-4868 -5648 0
-4865 -4885 0
-4866 -4886 0
-4867 -4887 0
-4868 -4888 0
-4865 -5037 0
-4866 -5038 0
-4867 -5039 0
-4868 -5040 0
-4865 -6105 0
-4866 -6106 0
-4867 -6107 0
-4868 -6108 0
-4865 -5613 0
-4866 -5614 0
-4867 -5615 0
-4868 -5616 0
-4869 -5637 0
-4870 -5638 0
-4871 -5639 0
-4872 -5640 0
-4869 -4873 0
-4870 -4874 0
-4871 -4875 0
-4872 -4876 0
-4869 -5513 0
-4870 -5514 0
-4871 -5515 0
-4872 -5516 0
-4869 -4881 0
-4870 -4882 0
-4871 -4883 0
-4872 -4884 0
-4869 -5549 0
-4870 -5550 0
-4871 -5551 0
-4872 -5552 0
-4869 -5805 0
-4870 -5806 0
-4871 -5807 0
-4872 -5808 0
-4873 -5809 0
-4874 -5810 0
-4875 -5811 0
-4876 -5812 0
-4873 -4885 0
-4874 -4886 0
-4875 -4887 0
-4876 -4888 0
-4873 -4917 0
-4874 -4918 0
-4875 -4919 0
-4876 -4920 0
-4873 -5553 0
-4874 -5554 0
-4875 -5555 0
-4876 -5556 0
-4873 -5045 0
-4874 -5046 0
-4875 -5047 0
-4876 -5048 0
-4877 -4881 0
-4878 -4882 0
-4879 -4883 0
-4880 -4884 0
-4877 -5929 0
-4878 -5930 0
-4879 -5931 0
-4880 -5932 0
-4877 -5689 0
-4878 -5690 0
-4879 -5691 0
-4880 -5692 0
-4877 -5057 0
-4878 -5058 0
-4879 -5059 0
-4880 -5060 0
-4881 -5633 0
-4882 -5634 0
-4883 -5635 0
-4884 -5636 0
-4881 -5661 0
-4882 -5662 0
-4883 -5663 0
-4884 -5664 0
-4881 -5677 0
-4882 -5678 0
-4883 -5679 0
-4884 -5680 0
-4881 -5701 0
-4882 -5702 0
-4883 -5703 0
-4884 -5704 0
-4881 -5805 0
-4882 -5806 0
-4883 -5807 0
-4884 -5808 0
-4881 -5817 0
-4882 -5818 0
-4883 -5819 0
-4884 -5820 0
-4881 -4885 0
-4882 -4886 0
-4883 -4887 0
-4884 -4888 0
-4881 -4893 0
-4882 -4894 0
-4883 -4895 0
-4884 -4896 0
-4881 -4901 0
-4882 -4902 0
-4883 -4903 0
-4884 -4904 0
-4881 -5929 0
-4882 -5930 0
-4883 -5931 0
-4884 -5932 0
-4881 -5933 0
-4882 -5934 0
-4883 -5935 0
-4884 -5936 0
-4881 -5941 0
-4882 -5942 0
-4883 -5943 0
-4884 -5944 0
-4881 -5949 0
-4882 -5950 0
-4883 -5951 0
-4884 -5952 0
-4881 -4929 0
-4882 -4930 0
-4883 -4931 0
-4884 -4932 0
-4881 -5981 0
-4882 -5982 0
-4883 -5983 0
-4884 -5984 0
-4881 -6005 0
-4882 -6006 0
-4883 -6007 0
-4884 -6008 0
-4881 -6013 0
-4882 -6014 0
-4883 -6015 0
-4884 -6016 0
-4881 -5509 0
-4882 -5510 0
-4883 -5511 0
-4884 -5512 0
-4881 -5517 0
-4882 -5518 0
-4883 -5519 0
-4884 -5520 0
-4881 -5525 0
-4882 -5526 0
-4883 -5527 0
-4884 -5528 0
-4881 -5545 0
-4882 -5546 0
-4883 -5547 0
-4884 -5548 0
-4881 -5041 0
-4882 -5042 0
-4883 -5043 0
-4884 -5044 0
-4881 -5557 0
-4882 -5558 0
-4883 -5559 0
-4884 -5560 0
-4881 -5049 0
-4882 -5050 0
-4883 -5051 0
-4884 -5052 0
-4881 -5061 0
-4882 -5062 0
-4883 -5063 0
-4884 -5064 0
-4881 -5573 0
-4882 -5574 0
-4883 -5575 0
-4884 -5576 0
-4881 -5577 0
-4882 -5578 0
-4883 -5579 0
-4884 -5580 0
-4881 -5589 0
-4882 -5590 0
-4883 -5591 0
-4884 -5592 0
-4881 -6101 0
-4882 -6102 0
-4883 -6103 0
-4884 -6104 0
-4881 -6109 0
-4882 -6110 0
-4883 -6111 0
-4884 -6112 0
-4881 -5617 0
-4882 -5618 0
-4883 -5619 0
-4884 -5620 0
-4881 -5625 0
-4882 -5626 0
-4883 -5627 0
-4884 -5628 0
-4885 -5653 0
-4886 -5654 0
-4887 -5655 0
-4888 -5656 0
-4885 -5665 0
-4886 -5666 0
-4887 -5667 0
-4888 -5668 0
-4885 -5681 0
-4886 -5682 0
-4887 -5683 0
-4888 -5684 0
-4885 -5705 0
-4886 -5706 0
-4887 -5707 0
-4888 -5708 0
-4885 -5269 0
-4886 -5270 0
-4887 -5271 0
-4888 -5272 0
-4885 -5809 0
-4886 -5810 0
-4887 -5811 0
-4888 -5812 0
-4885 -5821 0
-4886 -5822 0
-4887 -5823 0
-4888 -5824 0
-4885 -4889 0
-4886 -4890 0
-4887 -4891 0
-4888 -4892 0
-4885 -4897 0
-4886 -4898 0
-4887 -4899 0
-4888 -4900 0
-4885 -4905 0
-4886 -4906 0
-4887 -4907 0
-4888 -4908 0
-4885 -5933 0
-4886 -5934 0
-4887 -5935 0
-4888 -5936 0
-4885 -5937 0
-4886 -5938 0
-4887 -5939 0
-4888 -5940 0
-4885 -5945 0
-4886 -5946 0
-4887 -5947 0
-4888 -5948 0
-4885 -4933 0
-4886 -4934 0
-4887 -4935 0
-4888 -4936 0
-4885 -5985 0
-4886 -5986 0
-4887 -5987 0
-4888 -5988 0
-4885 -6009 0
-4886 -6010 0
-4887 -6011 0
-4888 -6012 0
-4885 -6017 0
-4886 -6018 0
-4887 -6019 0
-4888 -6020 0
-4885 -5513 0
-4886 -5514 0
-4887 -5515 0
-4888 -5516 0
-4885 -5521 0
-4886 -5522 0
-4887 -5523 0
-4888 -5524 0
-4885 -5529 0
-4886 -5530 0
-4887 -5531 0
-4888 -5532 0
-4885 -5549 0
-4886 -5550 0
-4887 -5551 0
-4888 -5552 0
-4885 -5561 0
-4886 -5562 0
-4887 -5563 0
-4888 -5564 0
-4885 -5053 0
-4886 -5054 0
-4887 -5055 0
-4888 -5056 0
-4885 -5065 0
-4886 -5066 0
-4887 -5067 0
-4888 -5068 0
-4885 -5593 0
-4886 -5594 0
-4887 -5595 0
-4888 -5596 0
-4885 -6105 0
-4886 -6106 0
-4887 -6107 0
-4888 -6108 0
-4885 -6113 0
-4886 -6114 0
-4887 -6115 0
-4888 -6116 0
-4885 -5621 0
-4886 -5622 0
-4887 -5623 0
-4888 -5624 0
-4885 -5629 0
-4886 -5630 0
-4887 -5631 0
-4888 -5632 0
-4889 -5937 0
-4890 -5938 0
-4891 -5939 0
-4892 -5940 0
-4889 -5813 0
-4890 -5814 0
-4891 -5815 0
-4892 -5816 0
-4893 -5669 0
-4894 -5670 0
-4895 -5671 0
-4896 -5672 0
-4893 -5685 0
-4894 -5686 0
-4895 -5687 0
-4896 -5688 0
-4893 -5817 0
-4894 -5818 0
-4895 -5819 0
-4896 -5820 0
-4893 -4897 0
-4894 -4898 0
-4895 -4899 0
-4896 -4900 0
-4893 -5569 0
-4894 -5570 0
-4895 -5571 0
-4896 -5572 0
-4897 -5517 0
-4898 -5518 0
-4899 -5519 0
-4900 -5520 0
-4897 -5821 0
-4898 -5822 0
-4899 -5823 0
-4900 -5824 0
-4897 -5613 0
-4898 -5614 0
-4899 -5615 0
-4900 -5616 0
-4901 -5637 0
-4902 -5638 0
-4903 -5639 0
-4904 -5640 0
-4901 -6109 0
-4902 -6110 0
-4903 -6111 0
-4904 -6112 0
-4901 -5917 0
-4902 -5918 0
-4903 -5919 0
-4904 -5920 0
-4901 -4905 0
-4902 -4906 0
-4903 -4907 0
-4904 -4908 0
-4901 -4949 0
-4902 -4950 0
-4903 -4951 0
-4904 -4952 0
-4901 -5533 0
-4902 -5534 0
-4903 -5535 0
-4904 -5536 0
-4901 -5069 0
-4902 -5070 0
-4903 -5071 0
-4904 -5072 0
-4905 -5601 0
-4906 -5602 0
-4907 -5603 0
-4908 -5604 0
-4905 -6113 0
-4906 -6114 0
-4907 -6115 0
-4908 -6116 0
-4905 -5825 0
-4906 -5826 0
-4907 -5827 0
-4908 -5828 0
-4905 -4917 0
-4906 -4918 0
-4907 -4919 0
-4908 -4920 0
-4905 -4953 0
-4906 -4954 0
-4907 -4955 0
-4908 -4956 0
-4909 -5561 0
-4910 -5562 0
-4911 -5563 0
-4912 -5564 0
-4909 -5693 0
-4910 -5694 0
-4911 -5695 0
-4912 -5696 0
-4909 -5061 0
-4910 -5062 0
-4911 -5063 0
-4912 -5064 0
-4909 -5581 0
-4910 -5582 0
-4911 -5583 0
-4912 -5584 0
-4913 -4961 0
-4914 -4962 0
-4915 -4963 0
-4916 -4964 0
-4917 -5685 0
-4918 -5686 0
-4919 -5687 0
-4920 -5688 0
-4917 -5817 0
-4918 -5818 0
-4919 -5819 0
-4920 -5820 0
-4917 -5717 0
-4918 -5718 0
-4919 -5719 0
-4920 -5720 0
-4921 -5677 0
-4922 -5678 0
-4923 -5679 0
-4924 -5680 0
-4925 -5129 0
-4926 -5130 0
-4927 -5131 0
-4928 -5132 0
-4925 -5665 0
-4926 -5666 0
-4927 -5667 0
-4928 -5668 0
-4925 -5709 0
-4926 -5710 0
-4927 -5711 0
-4928 -5712 0
-4925 -5317 0
-4926 -5318 0
-4927 -5319 0
-4928 -5320 0
-4925 -5865 0
-4926 -5866 0
-4927 -5867 0
-4928 -5868 0
-4925 -5909 0
-4926 -5910 0
-4927 -5911 0
-4928 -5912 0
-4925 -5477 0
-4926 -5478 0
-4927 -5479 0
-4928 -5480 0
-4925 -5101 0
-4926 -5102 0
-4927 -5103 0
-4928 -5104 0
-4929 -6129 0
-4930 -6130 0
-4931 -6131 0
-4932 -6132 0
-4929 -5841 0
-4930 -5842 0
-4931 -5843 0
-4932 -5844 0
-4929 -4933 0
-4930 -4934 0
-4931 -4935 0
-4932 -4936 0
-4929 -4949 0
-4930 -4950 0
-4931 -4951 0
-4932 -4952 0
-4929 -4981 0
-4930 -4982 0
-4931 -4983 0
-4932 -4984 0
-4929 -5525 0
-4930 -5526 0
-4931 -5527 0
-4932 -5528 0
-4929 -6117 0
-4930 -6118 0
-4931 -6119 0
-4932 -6120 0
-4929 -5105 0
-4930 -5106 0
-4931 -5107 0
-4932 -5108 0
-4933 -5657 0
-4934 -5658 0
-4935 -5659 0
-4936 -5660 0
-4933 -5669 0
-4934 -5670 0
-4935 -5671 0
-4936 -5672 0
-4933 -5325 0
-4934 -5326 0
-4935 -5327 0
-4936 -5328 0
-4933 -4953 0
-4934 -4954 0
-4935 -4955 0
-4936 -4956 0
-4933 -5529 0
-4934 -5530 0
-4935 -5531 0
-4936 -5532 0
-4937 -5533 0
-4938 -5534 0
-4939 -5535 0
-4940 -5536 0
-4937 -5565 0
-4938 -5566 0
-4939 -5567 0
-4940 -5568 0
-4937 -4941 0
-4938 -4942 0
-4939 -4943 0
-4940 -4944 0
-4937 -4945 0
-4938 -4946 0
-4939 -4947 0
-4940 -4948 0
-4937 -5113 0
-4938 -5114 0
-4939 -5115 0
-4940 -5116 0
-4937 -4985 0
-4938 -4986 0
-4939 -4987 0
-4940 -4988 0
-4941 -5677 0
-4942 -5678 0
-4943 -5679 0
-4944 -5680 0
-4941 -5845 0
-4942 -5846 0
-4943 -5847 0
-4944 -5848 0
-4941 -5849 0
-4942 -5850 0
-4943 -5851 0
-4944 -5852 0
-4941 -4949 0
-4942 -4950 0
-4943 -4951 0
-4944 -4952 0
-4941 -4961 0
-4942 -4962 0
-4943 -4963 0
-4944 -4964 0
-4941 -5029 0
-4942 -5030 0
-4943 -5031 0
-4944 -5032 0
-4945 -5717 0
-4946 -5718 0
-4947 -5719 0
-4948 -5720 0
-4945 -5853 0
-4946 -5854 0
-4947 -5855 0
-4948 -5856 0
-4945 -5941 0
-4946 -5942 0
-4947 -5943 0
-4948 -5944 0
-4945 -4949 0
-4946 -4950 0
-4947 -4951 0
-4948 -4952 0
-4945 -4989 0
-4946 -4990 0
-4947 -4991 0
-4948 -4992 0
-4945 -5569 0
-4946 -5570 0
-4947 -5571 0
-4948 -5572 0
-4945 -5109 0
-4946 -5110 0
-4947 -5111 0
-4948 -5112 0
-4949 -5685 0
-4950 -5686 0
-4951 -5687 0
-4952 -5688 0
-4949 -5697 0
-4950 -5698 0
-4951 -5699 0
-4952 -5700 0
-4949 -6121 0
-4950 -6122 0
-4951 -6123 0
-4952 -6124 0
-4949 -5721 0
-4950 -5722 0
-4951 -5723 0
-4952 -5724 0
-4949 -5849 0
-4950 -5850 0
-4951 -5851 0
-4952 -5852 0
-4949 -5857 0
-4950 -5858 0
-4951 -5859 0
-4952 -5860 0
-4949 -5941 0
-4950 -5942 0
-4951 -5943 0
-4952 -5944 0
-4949 -5945 0
-4950 -5946 0
-4951 -5947 0
-4952 -5948 0
-4949 -4953 0
-4950 -4954 0
-4951 -4955 0
-4952 -4956 0
-4949 -4957 0
-4950 -4958 0
-4951 -4959 0
-4952 -4960 0
-4949 -4965 0
-4950 -4966 0
-4951 -4967 0
-4952 -4968 0
-4949 -5989 0
-4950 -5990 0
-4951 -5991 0
-4952 -5992 0
-4949 -4993 0
-4950 -4994 0
-4951 -4995 0
-4952 -4996 0
-4949 -6025 0
-4950 -6026 0
-4951 -6027 0
-4952 -6028 0
-4949 -5533 0
-4950 -5534 0
-4951 -5535 0
-4952 -5536 0
-4949 -5537 0
-4950 -5538 0
-4951 -5539 0
-4952 -5540 0
-4949 -5541 0
-4950 -5542 0
-4951 -5543 0
-4952 -5544 0
-4949 -5557 0
-4950 -5558 0
-4951 -5559 0
-4952 -5560 0
-4949 -5565 0
-4950 -5566 0
-4951 -5567 0
-4952 -5568 0
-4949 -5577 0
-4950 -5578 0
-4951 -5579 0
-4952 -5580 0
-4949 -5597 0
-4950 -5598 0
-4951 -5599 0
-4952 -5600 0
-4949 -6117 0
-4950 -6118 0
-4951 -6119 0
-4952 -6120 0
-4949 -5609 0
-4950 -5610 0
-4951 -5611 0
-4952 -5612 0
-4949 -5113 0
-4950 -5114 0
-4951 -5115 0
-4952 -5116 0
-4949 -5117 0
-4950 -5118 0
-4951 -5119 0
-4952 -5120 0
-4953 -5673 0
-4954 -5674 0
-4955 -5675 0
-4956 -5676 0
-4953 -5561 0
-4954 -5562 0
-4955 -5563 0
-4956 -5564 0
-4953 -5945 0
-4954 -5946 0
-4955 -5947 0
-4956 -5948 0
-4957 -5857 0
-4958 -5858 0
-4959 -5859 0
-4960 -5860 0
-4957 -6129 0
-4958 -6130 0
-4959 -6131 0
-4960 -6132 0
-4961 -5861 0
-4962 -5862 0
-4963 -5863 0
-4964 -5864 0
-4961 -4965 0
-4962 -4966 0
-4963 -4967 0
-4964 -4968 0
-4965 -6121 0
-4966 -6122 0
-4967 -6123 0
-4968 -6124 0
-4969 -4997 0
-4970 -4998 0
-4971 -4999 0
-4972 -5000 0
-4969 -5049 0
-4970 -5050 0
-4971 -5051 0
-4972 -5052 0
-4969 -4977 0
-4970 -4978 0
-4971 -4979 0
-4972 -4980 0
-4969 -5729 0
-4970 -5730 0
-4971 -5731 0
-4972 -5732 0
-4973 -5125 0
-4974 -5126 0
-4975 -5127 0
-4976 -5128 0
-4973 -5141 0
-4974 -5142 0
-4975 -5143 0
-4976 -5144 0
-4973 -5849 0
-4974 -5850 0
-4975 -5851 0
-4976 -5852 0
-4973 -5609 0
-4974 -5610 0
-4975 -5611 0
-4976 -5612 0
-4977 -5697 0
-4978 -5698 0
-4979 -5699 0
-4980 -5700 0
-4977 -5745 0
-4978 -5746 0
-4979 -5747 0
-4980 -5748 0
-4977 -4981 0
-4978 -4982 0
-4979 -4983 0
-4980 -4984 0
-4977 -4989 0
-4978 -4990 0
-4979 -4991 0
-4980 -4992 0
-4977 -6029 0
-4978 -6030 0
-4979 -6031 0
-4980 -6032 0
-4977 -6053 0
-4978 -6054 0
-4979 -6055 0
-4980 -6056 0
-4981 -4993 0
-4982 -4994 0
-4983 -4995 0
-4984 -4996 0
-4981 -6085 0
-4982 -6086 0
-4983 -6087 0
-4984 -6088 0
-4981 -5861 0
-4982 -5862 0
-4983 -5863 0
-4984 -5864 0
-4981 -5749 0
-4982 -5750 0
-4983 -5751 0
-4984 -5752 0
-4985 -5761 0
-4986 -5762 0
-4987 -5763 0
-4988 -5764 0
-4985 -5541 0
-4986 -5542 0
-4987 -5543 0
-4988 -5544 0
-4985 -4989 0
-4986 -4990 0
-4987 -4991 0
-4988 -4992 0
-4989 -4993 0
-4990 -4994 0
-4991 -4995 0
-4992 -4996 0
-4989 -5773 0
-4990 -5774 0
-4991 -5775 0
-4992 -5776 0
-4989 -6033 0
-4990 -6034 0
-4991 -6035 0
-4992 -6036 0
-4989 -5877 0
-4990 -5878 0
-4991 -5879 0
-4992 -5880 0
-4993 -5777 0
-4994 -5778 0
-4995 -5779 0
-4996 -5780 0
-4993 -5541 0
-4994 -5542 0
-4995 -5543 0
-4996 -5544 0
-4997 -5001 0
-4998 -5002 0
-4999 -5003 0
-5000 -5004 0
-4997 -5993 0
-4998 -5994 0
-4999 -5995 0
-5000 -5996 0
-4997 -5105 0
-4998 -5106 0
-4999 -5107 0
-5000 -5108 0
-5001 -5789 0
-5002 -5790 0
-5003 -5791 0
-5004 -5792 0
-5005 -5517 0
-5006 -5518 0
-5007 -5519 0
-5008 -5520 0
-5005 -5145 0
-5006 -5146 0
-5007 -5147 0
-5008 -5148 0
-5005 -5169 0
-5006 -5170 0
-5007 -5171 0
-5008 -5172 0
-5005 -5181 0
-5006 -5182 0
-5007 -5183 0
-5008 -5184 0
-5005 -5705 0
-5006 -5706 0
-5007 -5707 0
-5008 -5708 0
-5009 -5641 0
-5010 -5642 0
-5011 -5643 0
-5012 -5644 0
-5009 -5161 0
-5010 -5162 0
-5011 -5163 0
-5012 -5164 0
-5009 -5729 0
-5010 -5730 0
-5011 -5731 0
-5012 -5732 0
-5009 -5025 0
-5010 -5026 0
-5011 -5027 0
-5012 -5028 0
-5009 -5045 0
-5010 -5046 0
-5011 -5047 0
-5012 -5048 0
-5009 -5593 0
-5010 -5594 0
-5011 -5595 0
-5012 -5596 0
-5013 -6037 0
-5014 -6038 0
-5015 -6039 0
-5016 -6040 0
-5013 -5169 0
-5014 -5170 0
-5015 -5171 0
-5016 -5172 0
-5013 -5181 0
-5014 -5182 0
-5015 -5183 0
-5016 -5184 0
-5017 -5649 0
-5018 -5650 0
-5019 -5651 0
-5020 -5652 0
-5017 -5721 0
-5018 -5722 0
-5019 -5723 0
-5020 -5724 0
-5017 -5625 0
-5018 -5626 0
-5019 -5627 0
-5020 -5628 0
-5021 -5761 0
-5022 -5762 0
-5023 -5763 0
-5024 -5764 0
-5021 -5025 0
-5022 -5026 0
-5023 -5027 0
-5024 -5028 0
-5021 -5741 0
-5022 -5742 0
-5023 -5743 0
-5024 -5744 0
-5025 -5661 0
-5026 -5662 0
-5027 -5663 0
-5028 -5664 0
-5025 -5181 0
-5026 -5182 0
-5027 -5183 0
-5028 -5184 0
-5025 -5745 0
-5026 -5746 0
-5027 -5747 0
-5028 -5748 0
-5025 -5765 0
-5026 -5766 0
-5027 -5767 0
-5028 -5768 0
-5025 -5029 0
-5026 -5030 0
-5027 -5031 0
-5028 -5032 0
-5025 -5601 0
-5026 -5602 0
-5027 -5603 0
-5028 -5604 0
-5029 -5773 0
-5030 -5774 0
-5031 -5775 0
-5032 -5776 0
-5029 -5581 0
-5030 -5582 0
-5031 -5583 0
-5032 -5584 0
-5033 -5657 0
-5034 -5658 0
-5035 -5659 0
-5036 -5660 0
-5033 -5629 0
-5034 -5630 0
-5035 -5631 0
-5036 -5632 0
-5033 -5553 0
-5034 -5554 0
-5035 -5555 0
-5036 -5556 0
-5033 -5197 0
-5034 -5198 0
-5035 -5199 0
-5036 -5200 0
-5037 -5661 0
-5038 -5662 0
-5039 -5663 0
-5040 -5664 0
-5037 -5677 0
-5038 -5678 0
-5039 -5679 0
-5040 -5680 0
-5037 -5721 0
-5038 -5722 0
-5039 -5723 0
-5040 -5724 0
-5037 -5745 0
-5038 -5746 0
-5039 -5747 0
-5040 -5748 0
-5037 -5789 0
-5038 -5790 0
-5039 -5791 0
-5040 -5792 0
-5037 -5957 0
-5038 -5958 0
-5039 -5959 0
-5040 -5960 0
-5037 -5525 0
-5038 -5526 0
-5039 -5527 0
-5040 -5528 0
-5037 -5053 0
-5038 -5054 0
-5039 -5055 0
-5040 -5056 0
-5041 -5513 0
-5042 -5514 0
-5043 -5515 0
-5044 -5516 0
-5041 -5549 0
-5042 -5550 0
-5043 -5551 0
-5044 -5552 0
-5041 -5077 0
-5042 -5078 0
-5043 -5079 0
-5044 -5080 0
-5041 -5737 0
-5042 -5738 0
-5043 -5739 0
-5044 -5740 0
-5045 -5689 0
-5046 -5690 0
-5047 -5691 0
-5048 -5692 0
-5045 -5213 0
-5046 -5214 0
-5047 -5215 0
-5048 -5216 0
-5045 -5761 0
-5046 -5762 0
-5047 -5763 0
-5048 -5764 0
-5045 -5885 0
-5046 -5886 0
-5047 -5887 0
-5048 -5888 0
-5045 -5053 0
-5046 -5054 0
-5047 -5055 0
-5048 -5056 0
-5045 -5597 0
-5046 -5598 0
-5047 -5599 0
-5048 -5600 0
-5049 -5645 0
-5050 -5646 0
-5051 -5647 0
-5052 -5648 0
-5049 -5225 0
-5050 -5226 0
-5051 -5227 0
-5052 -5228 0
-5049 -5769 0
-5050 -5770 0
-5051 -5771 0
-5052 -5772 0
-5049 -5793 0
-5050 -5794 0
-5051 -5795 0
-5052 -5796 0
-5049 -6013 0
-5050 -6014 0
-5051 -6015 0
-5052 -6016 0
-5049 -6065 0
-5050 -6066 0
-5051 -6067 0
-5052 -6068 0
-5049 -5053 0
-5050 -5054 0
-5051 -5055 0
-5052 -5056 0
-5049 -6093 0
-5050 -6094 0
-5051 -6095 0
-5052 -6096 0
-5049 -5601 0
-5050 -5602 0
-5051 -5603 0
-5052 -5604 0
-5049 -5105 0
-5050 -5106 0
-5051 -5107 0
-5052 -5108 0
-5053 -5201 0
-5054 -5202 0
-5055 -5203 0
-5056 -5204 0
-5053 -5233 0
-5054 -5234 0
-5055 -5235 0
-5056 -5236 0
-5053 -5773 0
-5054 -5774 0
-5055 -5775 0
-5056 -5776 0
-5053 -5965 0
-5054 -5966 0
-5055 -5967 0
-5056 -5968 0
-5053 -6017 0
-5054 -6018 0
-5055 -6019 0
-5056 -6020 0
-5053 -5533 0
-5054 -5534 0
-5055 -5535 0
-5056 -5536 0
-5053 -6069 0
-5054 -6070 0
-5055 -6071 0
-5056 -6072 0
-5057 -5061 0
-5058 -5062 0
-5059 -5063 0
-5060 -5064 0
-5061 -5729 0
-5062 -5730 0
-5063 -5731 0
-5064 -5732 0
-5061 -5753 0
-5062 -5754 0
-5063 -5755 0
-5064 -5756 0
-5061 -5769 0
-5062 -5770 0
-5063 -5771 0
-5064 -5772 0
-5061 -6045 0
-5062 -6046 0
-5063 -6047 0
-5064 -6048 0
-5061 -5065 0
-5062 -5066 0
-5063 -5067 0
-5064 -5068 0
-5061 -5069 0
-5062 -5070 0
-5063 -5071 0
-5064 -5072 0
-5061 -5605 0
-5062 -5606 0
-5063 -5607 0
-5064 -5608 0
-5061 -6133 0
-5062 -6134 0
-5063 -6135 0
-5064 -6136 0
-5061 -6141 0
-5062 -6142 0
-5063 -6143 0
-5064 -6144 0
-5065 -5233 0
-5066 -5234 0
-5067 -5235 0
-5068 -5236 0
-5065 -5773 0
-5066 -5774 0
-5067 -5775 0
-5068 -5776 0
-5065 -5969 0
-5066 -5970 0
-5067 -5971 0
-5068 -5972 0
-5065 -5565 0
-5066 -5566 0
-5067 -5567 0
-5068 -5568 0
-5065 -5077 0
-5066 -5078 0
-5067 -5079 0
-5068 -5080 0
-5069 -6145 0
-5070 -6146 0
-5071 -6147 0
-5072 -6148 0
-5069 -5745 0
-5070 -5746 0
-5071 -5747 0
-5072 -5748 0
-5069 -5237 0
-5070 -5238 0
-5071 -5239 0
-5072 -5240 0
-5069 -5781 0
-5070 -5782 0
-5071 -5783 0
-5072 -5784 0
-5069 -6049 0
-5070 -6050 0
-5071 -6051 0
-5072 -6052 0
-5069 -5093 0
-5070 -5094 0
-5071 -5095 0
-5072 -5096 0
-5069 -6137 0
-5070 -6138 0
-5071 -6139 0
-5072 -6140 0
-5073 -5893 0
-5074 -5894 0
-5075 -5895 0
-5076 -5896 0
-5073 -5661 0
-5074 -5662 0
-5075 -5663 0
-5076 -5664 0
-5073 -5077 0
-5074 -5078 0
-5075 -5079 0
-5076 -5080 0
-5077 -5669 0
-5078 -5670 0
-5079 -5671 0
-5080 -5672 0
-5077 -5689 0
-5078 -5690 0
-5079 -5691 0
-5080 -5692 0
-5077 -5749 0
-5078 -5750 0
-5079 -5751 0
-5080 -5752 0
-5077 -5885 0
-5078 -5886 0
-5079 -5887 0
-5080 -5888 0
-5077 -5893 0
-5078 -5894 0
-5079 -5895 0
-5080 -5896 0
-5077 -5913 0
-5078 -5914 0
-5079 -5915 0
-5080 -5916 0
-5081 -5157 0
-5082 -5158 0
-5083 -5159 0
-5084 -5160 0
-5081 -5737 0
-5082 -5738 0
-5083 -5739 0
-5084 -5740 0
-5081 -5257 0
-5082 -5258 0
-5083 -5259 0
-5084 -5260 0
-5081 -5897 0
-5082 -5898 0
-5083 -5899 0
-5084 -5900 0
-5081 -5917 0
-5082 -5918 0
-5083 -5919 0
-5084 -5920 0
-5081 -5433 0
-5082 -5434 0
-5083 -5435 0
-5084 -5436 0
-5081 -5553 0
-5082 -5554 0
-5083 -5555 0
-5084 -5556 0
-5081 -5085 0
-5082 -5086 0
-5083 -5087 0
-5084 -5088 0
-5081 -5089 0
-5082 -5090 0
-5083 -5091 0
-5084 -5092 0
-5081 -5605 0
-5082 -5606 0
-5083 -5607 0
-5084 -5608 0
-5085 -5789 0
-5086 -5790 0
-5087 -5791 0
-5088 -5792 0
-5085 -5437 0
-5086 -5438 0
-5087 -5439 0
-5088 -5440 0
-5085 -5193 0
-5086 -5194 0
-5087 -5195 0
-5088 -5196 0
-5089 -5169 0
-5090 -5170 0
-5091 -5171 0
-5092 -5172 0
-5089 -5745 0
-5090 -5746 0
-5091 -5747 0
-5092 -5748 0
-5089 -5949 0
-5090 -5950 0
-5091 -5951 0
-5092 -5952 0
-5089 -5561 0
-5090 -5562 0
-5091 -5563 0
-5092 -5564 0
-5089 -5101 0
-5090 -5102 0
-5091 -5103 0
-5092 -5104 0
-5093 -5617 0
-5094 -5618 0
-5095 -5619 0
-5096 -5620 0
-5093 -5737 0
-5094 -5738 0
-5095 -5739 0
-5096 -5740 0
-5093 -5245 0
-5094 -5246 0
-5095 -5247 0
-5096 -5248 0
-5093 -5773 0
-5094 -5774 0
-5095 -5775 0
-5096 -5776 0
-5093 -5105 0
-5094 -5106 0
-5095 -5107 0
-5096 -5108 0
-5093 -6133 0
-5094 -6134 0
-5095 -6135 0
-5096 -6136 0
-5093 -6141 0
-5094 -6142 0
-5095 -6143 0
-5096 -6144 0
-5097 -5261 0
-5098 -5262 0
-5099 -5263 0
-5100 -5264 0
-5097 -5245 0
-5098 -5246 0
-5099 -5247 0
-5100 -5248 0
-5101 -5189 0
-5102 -5190 0
-5103 -5191 0
-5104 -5192 0
-5101 -5773 0
-5102 -5774 0
-5103 -5775 0
-5104 -5776 0
-5101 -5265 0
-5102 -5266 0
-5103 -5267 0
-5104 -5268 0
-5101 -5813 0
-5102 -5814 0
-5103 -5815 0
-5104 -5816 0
-5101 -5901 0
-5102 -5902 0
-5103 -5903 0
-5104 -5904 0
-5101 -5925 0
-5102 -5926 0
-5103 -5927 0
-5104 -5928 0
-5101 -5461 0
-5102 -5462 0
-5103 -5463 0
-5104 -5464 0
-5101 -5625 0
-5102 -5626 0
-5103 -5627 0
-5104 -5628 0
-5105 -6145 0
-5106 -6146 0
-5107 -6147 0
-5108 -6148 0
-5105 -5761 0
-5106 -5762 0
-5107 -5763 0
-5108 -5764 0
-5105 -5785 0
-5106 -5786 0
-5107 -5787 0
-5108 -5788 0
-5105 -5817 0
-5106 -5818 0
-5107 -5819 0
-5108 -5820 0
-5105 -5957 0
-5106 -5958 0
-5107 -5959 0
-5108 -5960 0
-5105 -6137 0
-5106 -6138 0
-5107 -6139 0
-5108 -6140 0
-5105 -5117 0
-5106 -5118 0
-5107 -5119 0
-5108 -5120 0
-5109 -5533 0
-5110 -5534 0
-5111 -5535 0
-5112 -5536 0
-5109 -5793 0
-5110 -5794 0
-5111 -5795 0
-5112 -5796 0
-5109 -5565 0
-5110 -5566 0
-5111 -5567 0
-5112 -5568 0
-5109 -5113 0
-5110 -5114 0
-5111 -5115 0
-5112 -5116 0
-5113 -5193 0
-5114 -5194 0
-5115 -5195 0
-5116 -5196 0
-5117 -5965 0
-5118 -5966 0
-5119 -5967 0
-5120 -5968 0
-5117 -5969 0
-5118 -5970 0
-5119 -5971 0
-5120 -5972 0
-5121 -5829 0
-5122 -5830 0
-5123 -5831 0
-5124 -5832 0
-5121 -5213 0
-5122 -5214 0
-5123 -5215 0
-5124 -5216 0
-5125 -5313 0
-5126 -5314 0
-5127 -5315 0
-5128 -5316 0
-5129 -5265 0
-5130 -5266 0
-5131 -5267 0
-5132 -5268 0
-5129 -5901 0
-5130 -5902 0
-5131 -5903 0
-5132 -5904 0
-5129 -5169 0
-5130 -5170 0
-5131 -5171 0
-5132 -5172 0
-5129 -5813 0
-5130 -5814 0
-5131 -5815 0
-5132 -5816 0
-5129 -5581 0
-5130 -5582 0
-5131 -5583 0
-5132 -5584 0
-5133 -5137 0
-5134 -5138 0
-5135 -5139 0
-5136 -5140 0
-5133 -5157 0
-5134 -5158 0
-5135 -5159 0
-5136 -5160 0
-5133 -5293 0
-5134 -5294 0
-5135 -5295 0
-5136 -5296 0
-5133 -5545 0
-5134 -5546 0
-5135 -5547 0
-5136 -5548 0
-5133 -6069 0
-5134 -6070 0
-5135 -6071 0
-5136 -6072 0
-5137 -5169 0
-5138 -5170 0
-5139 -5171 0
-5140 -5172 0
-5137 -5197 0
-5138 -5198 0
-5139 -5199 0
-5140 -5200 0
-5137 -5809 0
-5138 -5810 0
-5139 -5811 0
-5140 -5812 0
-5137 -5301 0
-5138 -5302 0
-5139 -5303 0
-5140 -5304 0
-5137 -5593 0
-5138 -5594 0
-5139 -5595 0
-5140 -5596 0
-5137 -6125 0
-5138 -6126 0
-5139 -6127 0
-5140 -6128 0
-5141 -5145 0
-5142 -5146 0
-5143 -5147 0
-5144 -5148 0
-5141 -6045 0
-5142 -6046 0
-5143 -6047 0
-5144 -6048 0
-5141 -5293 0
-5142 -5294 0
-5143 -5295 0
-5144 -5296 0
-5141 -5421 0
-5142 -5422 0
-5143 -5423 0
-5144 -5424 0
-5141 -5313 0
-5142 -5314 0
-5143 -5315 0
-5144 -5316 0
-5141 -5613 0
-5142 -5614 0
-5143 -5615 0
-5144 -5616 0
-5141 -5981 0
-5142 -5982 0
-5143 -5983 0
-5144 -5984 0
-5145 -5649 0
-5146 -5650 0
-5147 -5651 0
-5148 -5652 0
-5145 -5985 0
-5146 -5986 0
-5147 -5987 0
-5148 -5988 0
-5145 -5297 0
-5146 -5298 0
-5147 -5299 0
-5148 -5300 0
-5145 -5317 0
-5146 -5318 0
-5147 -5319 0
-5148 -5320 0
-5145 -5333 0
-5146 -5334 0
-5147 -5335 0
-5148 -5336 0
-5145 -6129 0
-5146 -6130 0
-5147 -6131 0
-5148 -6132 0
-5149 -5157 0
-5150 -5158 0
-5151 -5159 0
-5152 -5160 0
-5149 -5733 0
-5150 -5734 0
-5151 -5735 0
-5152 -5736 0
-5149 -5805 0
-5150 -5806 0
-5151 -5807 0
-5152 -5808 0
-5149 -5201 0
-5150 -5202 0
-5151 -5203 0
-5152 -5204 0
-5153 -5657 0
-5154 -5658 0
-5155 -5659 0
-5156 -5660 0
-5153 -5157 0
-5154 -5158 0
-5155 -5159 0
-5156 -5160 0
-5153 -5165 0
-5154 -5166 0
-5155 -5167 0
-5156 -5168 0
-5153 -5737 0
-5154 -5738 0
-5155 -5739 0
-5156 -5740 0
-5153 -5829 0
-5154 -5830 0
-5155 -5831 0
-5156 -5832 0
-5153 -5913 0
-5154 -5914 0
-5155 -5915 0
-5156 -5916 0
-5153 -6073 0
-5154 -6074 0
-5155 -6075 0
-5156 -6076 0
-5153 -5581 0
-5154 -5582 0
-5155 -5583 0
-5156 -5584 0
-5157 -5169 0
-5158 -5170 0
-5159 -5171 0
-5160 -5172 0
-5157 -5725 0
-5158 -5726 0
-5159 -5727 0
-5160 -5728 0
-5157 -5817 0
-5158 -5818 0
-5159 -5819 0
-5160 -5820 0
-5157 -5309 0
-5158 -5310 0
-5159 -5311 0
-5160 -5312 0
-5157 -5905 0
-5158 -5906 0
-5159 -5907 0
-5160 -5908 0
-5161 -5665 0
-5162 -5666 0
-5163 -5667 0
-5164 -5668 0
-5161 -5165 0
-5162 -5166 0
-5163 -5167 0
-5164 -5168 0
-5161 -5941 0
-5162 -5942 0
-5163 -5943 0
-5164 -5944 0
-5161 -5741 0
-5162 -5742 0
-5163 -5743 0
-5164 -5744 0
-5161 -5213 0
-5162 -5214 0
-5163 -5215 0
-5164 -5216 0
-5165 -5169 0
-5166 -5170 0
-5167 -5171 0
-5168 -5172 0
-5165 -5185 0
-5166 -5186 0
-5167 -5187 0
-5168 -5188 0
-5165 -5217 0
-5166 -5218 0
-5167 -5219 0
-5168 -5220 0
-5165 -5745 0
-5166 -5746 0
-5167 -5747 0
-5168 -5748 0
-5165 -5313 0
-5166 -5314 0
-5167 -5315 0
-5168 -5316 0
-5165 -5917 0
-5166 -5918 0
-5167 -5919 0
-5168 -5920 0
-5165 -5945 0
-5166 -5946 0
-5167 -5947 0
-5168 -5948 0
-5165 -5981 0
-5166 -5982 0
-5167 -5983 0
-5168 -5984 0
-5165 -6065 0
-5166 -6066 0
-5167 -6067 0
-5168 -6068 0
-5169 -5601 0
-5170 -5602 0
-5171 -5603 0
-5172 -5604 0
-5169 -5657 0
-5170 -5658 0
-5171 -5659 0
-5172 -5660 0
-5169 -5173 0
-5170 -5174 0
-5171 -5175 0
-5172 -5176 0
-5169 -5177 0
-5170 -5178 0
-5171 -5179 0
-5172 -5180 0
-5169 -5189 0
-5170 -5190 0
-5171 -5191 0
-5172 -5192 0
-5169 -5709 0
-5170 -5710 0
-5171 -5711 0
-5172 -5712 0
-5169 -5221 0
-5170 -5222 0
-5171 -5223 0
-5172 -5224 0
-5169 -5749 0
-5170 -5750 0
-5171 -5751 0
-5172 -5752 0
-5169 -5801 0
-5170 -5802 0
-5171 -5803 0
-5172 -5804 0
-5169 -5825 0
-5170 -5826 0
-5171 -5827 0
-5172 -5828 0
-5169 -5317 0
-5170 -5318 0
-5171 -5319 0
-5172 -5320 0
-5169 -5333 0
-5170 -5334 0
-5171 -5335 0
-5172 -5336 0
-5169 -5833 0
-5170 -5834 0
-5171 -5835 0
-5172 -5836 0
-5169 -5865 0
-5170 -5866 0
-5171 -5867 0
-5172 -5868 0
-5169 -5905 0
-5170 -5906 0
-5171 -5907 0
-5172 -5908 0
-5169 -5909 0
-5170 -5910 0
-5171 -5911 0
-5172 -5912 0
-5169 -5981 0
-5170 -5982 0
-5171 -5983 0
-5172 -5984 0
-5169 -5985 0
-5170 -5986 0
-5171 -5987 0
-5172 -5988 0
-5169 -5477 0
-5170 -5478 0
-5171 -5479 0
-5172 -5480 0
-5169 -5989 0
-5170 -5990 0
-5171 -5991 0
-5172 -5992 0
-5169 -6037 0
-5170 -6038 0
-5171 -6039 0
-5172 -6040 0
-5169 -6069 0
-5170 -6070 0
-5171 -6071 0
-5172 -6072 0
-5169 -6077 0
-5170 -6078 0
-5171 -6079 0
-5172 -6080 0
-5169 -5581 0
-5170 -5582 0
-5171 -5583 0
-5172 -5584 0
-5169 -5585 0
-5170 -5586 0
-5171 -5587 0
-5172 -5588 0
-5169 -6125 0
-5170 -6126 0
-5171 -6127 0
-5172 -6128 0
-5169 -6129 0
-5170 -6130 0
-5171 -6131 0
-5172 -6132 0
-5173 -5321 0
-5174 -5322 0
-5175 -5323 0
-5176 -5324 0
-5173 -5985 0
-5174 -5986 0
-5175 -5987 0
-5176 -5988 0
-5177 -5909 0
-5178 -5910 0
-5179 -5911 0
-5180 -5912 0
-5177 -5945 0
-5178 -5946 0
-5179 -5947 0
-5180 -5948 0
-5177 -5329 0
-5178 -5330 0
-5179 -5331 0
-5180 -5332 0
-5181 -5825 0
-5182 -5826 0
-5183 -5827 0
-5184 -5828 0
-5181 -5333 0
-5182 -5334 0
-5183 -5335 0
-5184 -5336 0
-5185 -5649 0
-5186 -5650 0
-5187 -5651 0
-5188 -5652 0
-5185 -5189 0
-5186 -5190 0
-5187 -5191 0
-5188 -5192 0
-5185 -5773 0
-5186 -5774 0
-5187 -5775 0
-5188 -5776 0
-5185 -5841 0
-5186 -5842 0
-5187 -5843 0
-5188 -5844 0
-5185 -5345 0
-5186 -5346 0
-5187 -5347 0
-5188 -5348 0
-5185 -5921 0
-5186 -5922 0
-5187 -5923 0
-5188 -5924 0
-5185 -6073 0
-5186 -6074 0
-5187 -6075 0
-5188 -6076 0
-5189 -5777 0
-5190 -5778 0
-5191 -5779 0
-5192 -5780 0
-5189 -6129 0
-5190 -6130 0
-5191 -6131 0
-5192 -6132 0
-5189 -5341 0
-5190 -5342 0
-5191 -5343 0
-5192 -5344 0
-5193 -5657 0
-5194 -5658 0
-5195 -5659 0
-5196 -5660 0
-5193 -5809 0
-5194 -5810 0
-5195 -5811 0
-5196 -5812 0
-5193 -5229 0
-5194 -5230 0
-5195 -5231 0
-5196 -5232 0
-5193 -5345 0
-5194 -5346 0
-5195 -5347 0
-5196 -5348 0
-5197 -5221 0
-5198 -5222 0
-5199 -5223 0
-5200 -5224 0
-5197 -5241 0
-5198 -5242 0
-5199 -5243 0
-5200 -5244 0
-5197 -5765 0
-5198 -5766 0
-5199 -5767 0
-5200 -5768 0
-5197 -5789 0
-5198 -5790 0
-5199 -5791 0
-5200 -5792 0
-5197 -5817 0
-5198 -5818 0
-5199 -5819 0
-5200 -5820 0
-5197 -5593 0
-5198 -5594 0
-5199 -5595 0
-5200 -5596 0
-5201 -5833 0
-5202 -5834 0
-5203 -5835 0
-5204 -5836 0
-5201 -5597 0
-5202 -5598 0
-5203 -5599 0
-5204 -5600 0
-5201 -5357 0
-5202 -5358 0
-5203 -5359 0
-5204 -5360 0
-5205 -5213 0
-5206 -5214 0
-5207 -5215 0
-5208 -5216 0
-5205 -5733 0
-5206 -5734 0
-5207 -5735 0
-5208 -5736 0
-5205 -5245 0
-5206 -5246 0
-5207 -5247 0
-5208 -5248 0
-5205 -5273 0
-5206 -5274 0
-5207 -5275 0
-5208 -5276 0
-5205 -6101 0
-5206 -6102 0
-5207 -6103 0
-5208 -6104 0
-5209 -5737 0
-5210 -5738 0
-5211 -5739 0
-5212 -5740 0
-5209 -5357 0
-5210 -5358 0
-5211 -5359 0
-5212 -5360 0
-5209 -5869 0
-5210 -5870 0
-5211 -5871 0
-5212 -5872 0
-5209 -5213 0
-5210 -5214 0
-5211 -5215 0
-5212 -5216 0
-5209 -5225 0
-5210 -5226 0
-5211 -5227 0
-5212 -5228 0
-5213 -5677 0
-5214 -5678 0
-5215 -5679 0
-5216 -5680 0
-5213 -5217 0
-5214 -5218 0
-5215 -5219 0
-5216 -5220 0
-5213 -5249 0
-5214 -5250 0
-5215 -5251 0
-5216 -5252 0
-5213 -5369 0
-5214 -5370 0
-5215 -5371 0
-5216 -5372 0
-5217 -5609 0
-5218 -5610 0
-5219 -5611 0
-5220 -5612 0
-5217 -5681 0
-5218 -5682 0
-5219 -5683 0
-5220 -5684 0
-5217 -5221 0
-5218 -5222 0
-5219 -5223 0
-5220 -5224 0
-5217 -5229 0
-5218 -5230 0
-5219 -5231 0
-5220 -5232 0
-5217 -5793 0
-5218 -5794 0
-5219 -5795 0
-5220 -5796 0
-5217 -5849 0
-5218 -5850 0
-5219 -5851 0
-5220 -5852 0
-5217 -5605 0
-5218 -5606 0
-5219 -5607 0
-5220 -5608 0
-5221 -5601 0
-5222 -5602 0
-5223 -5603 0
-5224 -5604 0
-5221 -5365 0
-5222 -5366 0
-5223 -5367 0
-5224 -5368 0
-5225 -5693 0
-5226 -5694 0
-5227 -5695 0
-5228 -5696 0
-5225 -5745 0
-5226 -5746 0
-5227 -5747 0
-5228 -5748 0
-5225 -5361 0
-5226 -5362 0
-5227 -5363 0
-5228 -5364 0
-5229 -5785 0
-5230 -5786 0
-5231 -5787 0
-5232 -5788 0
-5229 -5857 0
-5230 -5858 0
-5231 -5859 0
-5232 -5860 0
-5229 -5825 0
-5230 -5826 0
-5231 -5827 0
-5232 -5828 0
-5233 -6157 0
-5234 -6158 0
-5235 -6159 0
-5236 -6160 0
-5233 -6113 0
-5234 -6114 0
-5235 -6115 0
-5236 -6116 0
-5233 -5853 0
-5234 -5854 0
-5235 -5855 0
-5236 -5856 0
-5233 -5861 0
-5234 -5862 0
-5235 -5863 0
-5236 -5864 0
-5233 -5873 0
-5234 -5874 0
-5235 -5875 0
-5236 -5876 0
-5237 -6049 0
-5238 -6050 0
-5239 -6051 0
-5240 -6052 0
-5237 -5837 0
-5238 -5838 0
-5239 -5839 0
-5240 -5840 0
-5241 -5321 0
-5242 -5322 0
-5243 -5323 0
-5244 -5324 0
-5241 -5721 0
-5242 -5722 0
-5243 -5723 0
-5244 -5724 0
-5241 -5841 0
-5242 -5842 0
-5243 -5843 0
-5244 -5844 0
-5241 -6113 0
-5242 -6114 0
-5243 -6115 0
-5244 -6116 0
-5241 -5877 0
-5242 -5878 0
-5243 -5879 0
-5244 -5880 0
-5245 -5249 0
-5246 -5250 0
-5247 -5251 0
-5248 -5252 0
-5245 -5861 0
-5246 -5862 0
-5247 -5863 0
-5248 -5864 0
-5245 -5609 0
-5246 -5610 0
-5247 -5611 0
-5248 -5612 0
-5245 -5885 0
-5246 -5886 0
-5247 -5887 0
-5248 -5888 0
-5249 -6145 0
-5250 -6146 0
-5251 -6147 0
-5252 -6148 0
-5249 -5845 0
-5250 -5846 0
-5251 -5847 0
-5252 -5848 0
-5253 -5937 0
-5254 -5938 0
-5255 -5939 0
-5256 -5940 0
-5257 -5641 0
-5258 -5642 0
-5259 -5643 0
-5260 -5644 0
-5257 -5293 0
-5258 -5294 0
-5259 -5295 0
-5260 -5296 0
-5257 -6105 0
-5258 -6106 0
-5259 -6107 0
-5260 -6108 0
-5261 -5273 0
-5262 -5274 0
-5263 -5275 0
-5264 -5276 0
-5261 -5621 0
-5262 -5622 0
-5263 -5623 0
-5264 -5624 0
-5261 -6109 0
-5262 -6110 0
-5263 -6111 0
-5264 -6112 0
-5261 -5745 0
-5262 -5746 0
-5263 -5747 0
-5264 -5748 0
-5261 -5885 0
-5262 -5886 0
-5263 -5887 0
-5264 -5888 0
-5265 -5669 0
-5266 -5670 0
-5267 -5671 0
-5268 -5672 0
-5265 -5685 0
-5266 -5686 0
-5267 -5687 0
-5268 -5688 0
-5265 -5817 0
-5266 -5818 0
-5267 -5819 0
-5268 -5820 0
-5265 -5317 0
-5266 -5318 0
-5267 -5319 0
-5268 -5320 0
-5265 -5621 0
-5266 -5622 0
-5267 -5623 0
-5268 -5624 0
-5269 -5401 0
-5270 -5402 0
-5271 -5403 0
-5272 -5404 0
-5269 -5877 0
-5270 -5878 0
-5271 -5879 0
-5272 -5880 0
-5269 -5325 0
-5270 -5326 0
-5271 -5327 0
-5272 -5328 0
-5269 -5717 0
-5270 -5718 0
-5271 -5719 0
-5272 -5720 0
-5273 -5277 0
-5274 -5278 0
-5275 -5279 0
-5276 -5280 0
-5273 -5409 0
-5274 -5410 0
-5275 -5411 0
-5276 -5412 0
-5273 -5773 0
-5274 -5774 0
-5275 -5775 0
-5276 -5776 0
-5273 -5993 0
-5274 -5994 0
-5275 -5995 0
-5276 -5996 0
-5273 -5713 0
-5274 -5714 0
-5275 -5715 0
-5276 -5716 0
-5277 -5785 0
-5278 -5786 0
-5279 -5787 0
-5280 -5788 0
-5277 -5717 0
-5278 -5718 0
-5279 -5719 0
-5280 -5720 0
-5277 -5997 0
-5278 -5998 0
-5279 -5999 0
-5280 -6000 0
-5277 -6001 0
-5278 -6002 0
-5279 -6003 0
-5280 -6004 0
-5281 -5293 0
-5282 -5294 0
-5283 -5295 0
-5284 -5296 0
-5281 -6133 0
-5282 -6134 0
-5283 -6135 0
-5284 -6136 0
-5285 -5645 0
-5286 -5646 0
-5287 -5647 0
-5288 -5648 0
-5285 -5913 0
-5286 -5914 0
-5287 -5915 0
-5288 -5916 0
-5285 -5293 0
-5286 -5294 0
-5287 -5295 0
-5288 -5296 0
-5285 -5425 0
-5286 -5426 0
-5287 -5427 0
-5288 -5428 0
-5289 -5377 0
-5290 -5378 0
-5291 -5379 0
-5292 -5380 0
-5289 -5293 0
-5290 -5294 0
-5291 -5295 0
-5292 -5296 0
-5289 -5421 0
-5290 -5422 0
-5291 -5423 0
-5292 -5424 0
-5289 -6065 0
-5290 -6066 0
-5291 -6067 0
-5292 -6068 0
-5289 -6005 0
-5290 -6006 0
-5291 -6007 0
-5292 -6008 0
-5293 -5641 0
-5294 -5642 0
-5295 -5643 0
-5296 -5644 0
-5293 -5649 0
-5294 -5650 0
-5295 -5651 0
-5296 -5652 0
-5293 -5689 0
-5294 -5690 0
-5295 -5691 0
-5296 -5692 0
-5293 -5733 0
-5294 -5734 0
-5295 -5735 0
-5296 -5736 0
-5293 -5789 0
-5294 -5790 0
-5295 -5791 0
-5296 -5792 0
-5293 -5297 0
-5294 -5298 0
-5295 -5299 0
-5296 -5300 0
-5293 -5301 0
-5294 -5302 0
-5295 -5303 0
-5296 -5304 0
-5293 -5309 0
-5294 -5310 0
-5295 -5311 0
-5296 -5312 0
-5293 -5829 0
-5294 -5830 0
-5295 -5831 0
-5296 -5832 0
-5293 -5353 0
-5294 -5354 0
-5295 -5355 0
-5296 -5356 0
-5293 -5869 0
-5294 -5870 0
-5295 -5871 0
-5296 -5872 0
-5293 -5873 0
-5294 -5874 0
-5295 -5875 0
-5296 -5876 0
-5293 -5881 0
-5294 -5882 0
-5295 -5883 0
-5296 -5884 0
-5293 -5885 0
-5294 -5886 0
-5295 -5887 0
-5296 -5888 0
-5293 -5893 0
-5294 -5894 0
-5295 -5895 0
-5296 -5896 0
-5293 -5897 0
-5294 -5898 0
-5295 -5899 0
-5296 -5900 0
-5293 -5913 0
-5294 -5914 0
-5295 -5915 0
-5296 -5916 0
-5293 -5917 0
-5294 -5918 0
-5295 -5919 0
-5296 -5920 0
-5293 -5417 0
-5294 -5418 0
-5295 -5419 0
-5296 -5420 0
-5293 -5433 0
-5294 -5434 0
-5295 -5435 0
-5296 -5436 0
-5293 -5445 0
-5294 -5446 0
-5295 -5447 0
-5296 -5448 0
-5293 -6005 0
-5294 -6006 0
-5295 -6007 0
-5296 -6008 0
-5293 -6009 0
-5294 -6010 0
-5295 -6011 0
-5296 -6012 0
-5293 -6025 0
-5294 -6026 0
-5295 -6027 0
-5296 -6028 0
-5293 -6069 0
-5294 -6070 0
-5295 -6071 0
-5296 -6072 0
-5293 -6081 0
-5294 -6082 0
-5295 -6083 0
-5296 -6084 0
-5293 -6085 0
-5294 -6086 0
-5295 -6087 0
-5296 -6088 0
-5293 -6133 0
-5294 -6134 0
-5295 -6135 0
-5296 -6136 0
-5293 -6137 0
-5294 -6138 0
-5295 -6139 0
-5296 -6140 0
-5297 -5645 0
-5298 -5646 0
-5299 -5647 0
-5300 -5648 0
-5297 -5389 0
-5298 -5390 0
-5299 -5391 0
-5300 -5392 0
-5297 -5437 0
-5298 -5438 0
-5299 -5439 0
-5300 -5440 0
-5297 -5449 0
-5298 -5450 0
-5299 -5451 0
-5300 -5452 0
-5297 -6009 0
-5298 -6010 0
-5299 -6011 0
-5300 -6012 0
-5301 -5317 0
-5302 -5318 0
-5303 -5319 0
-5304 -5320 0
-5301 -5917 0
-5302 -5918 0
-5303 -5919 0
-5304 -5920 0
-5301 -5421 0
-5302 -5422 0
-5303 -5423 0
-5304 -5424 0
-5301 -5533 0
-5302 -5534 0
-5303 -5535 0
-5304 -5536 0
-5301 -6141 0
-5302 -6142 0
-5303 -6143 0
-5304 -6144 0
-5305 -5325 0
-5306 -5326 0
-5307 -5327 0
-5308 -5328 0
-5305 -5745 0
-5306 -5746 0
-5307 -5747 0
-5308 -5748 0
-5309 -5661 0
-5310 -5662 0
-5311 -5663 0
-5312 -5664 0
-5309 -5757 0
-5310 -5758 0
-5311 -5759 0
-5312 -5760 0
-5309 -5317 0
-5310 -5318 0
-5311 -5319 0
-5312 -5320 0
-5309 -5337 0
-5310 -5338 0
-5311 -5339 0
-5312 -5340 0
-5309 -5361 0
-5310 -5362 0
-5311 -5363 0
-5312 -5364 0
-5309 -5921 0
-5310 -5922 0
-5311 -5923 0
-5312 -5924 0
-5309 -6105 0
-5310 -6106 0
-5311 -6107 0
-5312 -6108 0
-5309 -6137 0
-5310 -6138 0
-5311 -6139 0
-5312 -6140 0
-5313 -5761 0
-5314 -5762 0
-5315 -5763 0
-5316 -5764 0
-5313 -5777 0
-5314 -5778 0
-5315 -5779 0
-5316 -5780 0
-5313 -5809 0
-5314 -5810 0
-5315 -5811 0
-5316 -5812 0
-5313 -5317 0
-5314 -5318 0
-5315 -5319 0
-5316 -5320 0
-5313 -5325 0
-5314 -5326 0
-5315 -5327 0
-5316 -5328 0
-5313 -5837 0
-5314 -5838 0
-5315 -5839 0
-5316 -5840 0
-5313 -5445 0
-5314 -5446 0
-5315 -5447 0
-5316 -5448 0
-5313 -5961 0
-5314 -5962 0
-5315 -5963 0
-5316 -5964 0
-5313 -5965 0
-5314 -5966 0
-5315 -5967 0
-5316 -5968 0
-5313 -6013 0
-5314 -6014 0
-5315 -6015 0
-5316 -6016 0
-5317 -6145 0
-5318 -6146 0
-5319 -6147 0
-5320 -6148 0
-5317 -5669 0
-5318 -5670 0
-5319 -5671 0
-5320 -5672 0
-5317 -5693 0
-5318 -5694 0
-5319 -5695 0
-5320 -5696 0
-5317 -5765 0
-5318 -5766 0
-5319 -5767 0
-5320 -5768 0
-5317 -5813 0
-5318 -5814 0
-5319 -5815 0
-5320 -5816 0
-5317 -5321 0
-5318 -5322 0
-5319 -5323 0
-5320 -5324 0
-5317 -5329 0
-5318 -5330 0
-5319 -5331 0
-5320 -5332 0
-5317 -5341 0
-5318 -5342 0
-5319 -5343 0
-5320 -5344 0
-5317 -5841 0
-5318 -5842 0
-5319 -5843 0
-5320 -5844 0
-5317 -5873 0
-5318 -5874 0
-5319 -5875 0
-5320 -5876 0
-5317 -5365 0
-5318 -5366 0
-5319 -5367 0
-5320 -5368 0
-5317 -5877 0
-5318 -5878 0
-5319 -5879 0
-5320 -5880 0
-5317 -5889 0
-5318 -5890 0
-5319 -5891 0
-5320 -5892 0
-5317 -5901 0
-5318 -5902 0
-5319 -5903 0
-5320 -5904 0
-5317 -5921 0
-5318 -5922 0
-5319 -5923 0
-5320 -5924 0
-5317 -5925 0
-5318 -5926 0
-5319 -5927 0
-5320 -5928 0
-5317 -5449 0
-5318 -5450 0
-5319 -5451 0
-5320 -5452 0
-5317 -5461 0
-5318 -5462 0
-5319 -5463 0
-5320 -5464 0
-5317 -6013 0
-5318 -6014 0
-5319 -6015 0
-5320 -6016 0
-5317 -6017 0
-5318 -6018 0
-5319 -6019 0
-5320 -6020 0
-5317 -6077 0
-5318 -6078 0
-5319 -6079 0
-5320 -6080 0
-5317 -6085 0
-5318 -6086 0
-5319 -6087 0
-5320 -6088 0
-5317 -6141 0
-5318 -6142 0
-5319 -6143 0
-5320 -6144 0
-5321 -6017 0
-5322 -6018 0
-5323 -6019 0
-5324 -6020 0
-5325 -5773 0
-5326 -5774 0
-5327 -5775 0
-5328 -5776 0
-5325 -5821 0
-5326 -5822 0
-5327 -5823 0
-5328 -5824 0
-5325 -5329 0
-5326 -5330 0
-5327 -5331 0
-5328 -5332 0
-5329 -5777 0
-5330 -5778 0
-5331 -5779 0
-5332 -5780 0
-5329 -5925 0
-5330 -5926 0
-5331 -5927 0
-5332 -5928 0
-5329 -5965 0
-5330 -5966 0
-5331 -5967 0
-5332 -5968 0
-5333 -5889 0
-5334 -5890 0
-5335 -5891 0
-5336 -5892 0
-5337 -6113 0
-5338 -6114 0
-5339 -6115 0
-5340 -6116 0
-5337 -5541 0
-5338 -5542 0
-5339 -5543 0
-5340 -5544 0
-5337 -5697 0
-5338 -5698 0
-5339 -5699 0
-5340 -5700 0
-5337 -5341 0
-5338 -5342 0
-5339 -5343 0
-5340 -5344 0
-5337 -5849 0
-5338 -5850 0
-5339 -5851 0
-5340 -5852 0
-5337 -5749 0
-5338 -5750 0
-5339 -5751 0
-5340 -5752 0
-5341 -6145 0
-5342 -6146 0
-5343 -6147 0
-5344 -6148 0
-5341 -5857 0
-5342 -5858 0
-5343 -5859 0
-5344 -5860 0
-5341 -5673 0
-5342 -5674 0
-5343 -5675 0
-5344 -5676 0
-5345 -5765 0
-5346 -5766 0
-5347 -5767 0
-5348 -5768 0
-5345 -5861 0
-5346 -5862 0
-5347 -5863 0
-5348 -5864 0
-5349 -6021 0
-5350 -6022 0
-5351 -6023 0
-5352 -6024 0
-5349 -5789 0
-5350 -5790 0
-5351 -5791 0
-5352 -5792 0
-5349 -5685 0
-5350 -5686 0
-5351 -5687 0
-5352 -5688 0
-5349 -5465 0
-5350 -5466 0
-5351 -5467 0
-5352 -5468 0
-5353 -5689 0
-5354 -5690 0
-5355 -5691 0
-5356 -5692 0
-5353 -5845 0
-5354 -5846 0
-5355 -5847 0
-5356 -5848 0
-5353 -5361 0
-5354 -5362 0
-5355 -5363 0
-5356 -5364 0
-5353 -5373 0
-5354 -5374 0
-5355 -5375 0
-5356 -5376 0
-5353 -5405 0
-5354 -5406 0
-5355 -5407 0
-5356 -5408 0
-5353 -5469 0
-5354 -5470 0
-5355 -5471 0
-5356 -5472 0
-5357 -5361 0
-5358 -5362 0
-5359 -5363 0
-5360 -5364 0
-5357 -5893 0
-5358 -5894 0
-5359 -5895 0
-5360 -5896 0
-5361 -5789 0
-5362 -5790 0
-5363 -5791 0
-5364 -5792 0
-5361 -5861 0
-5362 -5862 0
-5363 -5863 0
-5364 -5864 0
-5361 -5365 0
-5362 -5366 0
-5363 -5367 0
-5364 -5368 0
-5361 -5905 0
-5362 -5906 0
-5363 -5907 0
-5364 -5908 0
-5361 -6025 0
-5362 -6026 0
-5363 -6027 0
-5364 -6028 0
-5365 -5909 0
-5366 -5910 0
-5367 -5911 0
-5368 -5912 0
-5365 -5477 0
-5366 -5478 0
-5367 -5479 0
-5368 -5480 0
-5365 -5693 0
-5366 -5694 0
-5367 -5695 0
-5368 -5696 0
-5369 -5697 0
-5370 -5698 0
-5371 -5699 0
-5372 -5700 0
-5373 -5457 0
-5374 -5458 0
-5375 -5459 0
-5376 -5460 0
-5377 -6069 0
-5378 -6070 0
-5379 -6071 0
-5380 -6072 0
-5377 -5817 0
-5378 -5818 0
-5379 -5819 0
-5380 -5820 0
-5377 -5869 0
-5378 -5870 0
-5379 -5871 0
-5380 -5872 0
-5377 -6133 0
-5378 -6134 0
-5379 -6135 0
-5380 -6136 0
-5381 -5385 0
-5382 -5386 0
-5383 -5387 0
-5384 -5388 0
-5381 -5389 0
-5382 -5390 0
-5383 -5391 0
-5384 -5392 0
-5381 -5825 0
-5382 -5826 0
-5383 -5827 0
-5384 -5828 0
-5381 -5745 0
-5382 -5746 0
-5383 -5747 0
-5384 -5748 0
-5385 -5749 0
-5386 -5750 0
-5387 -5751 0
-5388 -5752 0
-5385 -5833 0
-5386 -5834 0
-5387 -5835 0
-5388 -5836 0
-5385 -5873 0
-5386 -5874 0
-5387 -5875 0
-5388 -5876 0
-5385 -5905 0
-5386 -5906 0
-5387 -5907 0
-5388 -5908 0
-5385 -5601 0
-5386 -5602 0
-5387 -5603 0
-5388 -5604 0
-5389 -5773 0
-5390 -5774 0
-5391 -5775 0
-5392 -5776 0
-5389 -5841 0
-5390 -5842 0
-5391 -5843 0
-5392 -5844 0
-5393 -5509 0
-5394 -5510 0
-5395 -5511 0
-5396 -5512 0
-5393 -5881 0
-5394 -5882 0
-5395 -5883 0
-5396 -5884 0
-5397 -5661 0
-5398 -5662 0
-5399 -5663 0
-5400 -5664 0
-5397 -5713 0
-5398 -5714 0
-5399 -5715 0
-5400 -5716 0
-5397 -5745 0
-5398 -5746 0
-5399 -5747 0
-5400 -5748 0
-5397 -5813 0
-5398 -5814 0
-5399 -5815 0
-5400 -5816 0
-5397 -5833 0
-5398 -5834 0
-5399 -5835 0
-5400 -5836 0
-5397 -5405 0
-5398 -5406 0
-5399 -5407 0
-5400 -5408 0
-5397 -5437 0
-5398 -5438 0
-5399 -5439 0
-5400 -5440 0
-5401 -5721 0
-5402 -5722 0
-5403 -5723 0
-5404 -5724 0
-5401 -5761 0
-5402 -5762 0
-5403 -5763 0
-5404 -5764 0
-5401 -5885 0
-5402 -5886 0
-5403 -5887 0
-5404 -5888 0
-5401 -5405 0
-5402 -5406 0
-5403 -5407 0
-5404 -5408 0
-5401 -6045 0
-5402 -6046 0
-5403 -6047 0
-5404 -6048 0
-5401 -5617 0
-5402 -5618 0
-5403 -5619 0
-5404 -5620 0
-5405 -5717 0
-5406 -5718 0
-5407 -5719 0
-5408 -5720 0
-5405 -5773 0
-5406 -5774 0
-5407 -5775 0
-5408 -5776 0
-5405 -5457 0
-5406 -5458 0
-5407 -5459 0
-5408 -5460 0
-5405 -5481 0
-5406 -5482 0
-5407 -5483 0
-5408 -5484 0
-5405 -5989 0
-5406 -5990 0
-5407 -5991 0
-5408 -5992 0
-5409 -5909 0
-5410 -5910 0
-5411 -5911 0
-5412 -5912 0
-5409 -5413 0
-5410 -5414 0
-5411 -5415 0
-5412 -5416 0
-5409 -5565 0
-5410 -5566 0
-5411 -5567 0
-5412 -5568 0
-5409 -5441 0
-5410 -5442 0
-5411 -5443 0
-5412 -5444 0
-5409 -5725 0
-5410 -5726 0
-5411 -5727 0
-5412 -5728 0
-5409 -5481 0
-5410 -5482 0
-5411 -5483 0
-5412 -5484 0
-5413 -5689 0
-5414 -5690 0
-5415 -5691 0
-5416 -5692 0
-5413 -5729 0
-5414 -5730 0
-5415 -5731 0
-5416 -5732 0
-5413 -5885 0
-5414 -5886 0
-5415 -5887 0
-5416 -5888 0
-5413 -5893 0
-5414 -5894 0
-5415 -5895 0
-5416 -5896 0
-5413 -5905 0
-5414 -5906 0
-5415 -5907 0
-5416 -5908 0
-5413 -5437 0
-5414 -5438 0
-5415 -5439 0
-5416 -5440 0
-5417 -5645 0
-5418 -5646 0
-5419 -5647 0
-5420 -5648 0
-5417 -5421 0
-5418 -5422 0
-5419 -5423 0
-5420 -5424 0
-5421 -5641 0
-5422 -5642 0
-5423 -5643 0
-5424 -5644 0
-5421 -5649 0
-5422 -5650 0
-5423 -5651 0
-5424 -5652 0
-5421 -5733 0
-5422 -5734 0
-5423 -5735 0
-5424 -5736 0
-5421 -5429 0
-5422 -5430 0
-5423 -5431 0
-5424 -5432 0
-5421 -5449 0
-5422 -5450 0
-5423 -5451 0
-5424 -5452 0
-5425 -6057 0
-5426 -6058 0
-5427 -6059 0
-5428 -6060 0
-5425 -5433 0
-5426 -5434 0
-5427 -5435 0
-5428 -5436 0
-5425 -5453 0
-5426 -5454 0
-5427 -5455 0
-5428 -5456 0
-5425 -5465 0
-5426 -5466 0
-5427 -5467 0
-5428 -5468 0
-5425 -5745 0
-5426 -5746 0
-5427 -5747 0
-5428 -5748 0
-5429 -5565 0
-5430 -5566 0
-5431 -5567 0
-5432 -5568 0
-5433 -5741 0
-5434 -5742 0
-5435 -5743 0
-5436 -5744 0
-5433 -5753 0
-5434 -5754 0
-5435 -5755 0
-5436 -5756 0
-5433 -5437 0
-5434 -5438 0
-5435 -5439 0
-5436 -5440 0
-5433 -5469 0
-5434 -5470 0
-5435 -5471 0
-5436 -5472 0
-5433 -5485 0
-5434 -5486 0
-5435 -5487 0
-5436 -5488 0
-5433 -6085 0
-5434 -6086 0
-5435 -6087 0
-5436 -6088 0
-5437 -5745 0
-5438 -5746 0
-5439 -5747 0
-5440 -5748 0
-5437 -5793 0
-5438 -5794 0
-5439 -5795 0
-5440 -5796 0
-5437 -5441 0
-5438 -5442 0
-5439 -5443 0
-5440 -5444 0
-5437 -5457 0
-5438 -5458 0
-5439 -5459 0
-5440 -5460 0
-5441 -5889 0
-5442 -5890 0
-5443 -5891 0
-5444 -5892 0
-5441 -5753 0
-5442 -5754 0
-5443 -5755 0
-5444 -5756 0
-5441 -5905 0
-5442 -5906 0
-5443 -5907 0
-5444 -5908 0
-5441 -5693 0
-5442 -5694 0
-5443 -5695 0
-5444 -5696 0
-5445 -5765 0
-5446 -5766 0
-5447 -5767 0
-5448 -5768 0
-5445 -5669 0
-5446 -5670 0
-5447 -5671 0
-5448 -5672 0
-5445 -5449 0
-5446 -5450 0
-5447 -5451 0
-5448 -5452 0
-5445 -5485 0
-5446 -5486 0
-5447 -5487 0
-5448 -5488 0
-5449 -5661 0
-5450 -5662 0
-5451 -5663 0
-5452 -5664 0
-5449 -5757 0
-5450 -5758 0
-5451 -5759 0
-5452 -5760 0
-5453 -5773 0
-5454 -5774 0
-5455 -5775 0
-5456 -5776 0
-5453 -6061 0
-5454 -6062 0
-5455 -6063 0
-5456 -6064 0
-5453 -5829 0
-5454 -5830 0
-5455 -5831 0
-5456 -5832 0
-5457 -5773 0
-5458 -5774 0
-5459 -5775 0
-5460 -5776 0
-5457 -5797 0
-5458 -5798 0
-5459 -5799 0
-5460 -5800 0
-5457 -5697 0
-5458 -5698 0
-5459 -5699 0
-5460 -5700 0
-5457 -5833 0
-5458 -5834 0
-5459 -5835 0
-5460 -5836 0
-5461 -5849 0
-5462 -5850 0
-5463 -5851 0
-5464 -5852 0
-5465 -5913 0
-5466 -5914 0
-5467 -5915 0
-5468 -5916 0
-5465 -5793 0
-5466 -5794 0
-5467 -5795 0
-5468 -5796 0
-5465 -6053 0
-5466 -6054 0
-5467 -6055 0
-5468 -6056 0
-5465 -5469 0
-5466 -5470 0
-5467 -5471 0
-5468 -5472 0
-5469 -5917 0
-5470 -5918 0
-5471 -5919 0
-5472 -5920 0
-5469 -5997 0
-5470 -5998 0
-5471 -5999 0
-5472 -6000 0
-5473 -5897 0
-5474 -5898 0
-5475 -5899 0
-5476 -5900 0
-5477 -5901 0
-5478 -5902 0
-5479 -5903 0
-5480 -5904 0
-5477 -5925 0
-5478 -5926 0
-5479 -5927 0
-5480 -5928 0
-5477 -5813 0
-5478 -5814 0
-5479 -5815 0
-5480 -5816 0
-5481 -5917 0
-5482 -5918 0
-5483 -5919 0
-5484 -5920 0
-5481 -5925 0
-5482 -5926 0
-5483 -5927 0
-5484 -5928 0
-5481 -5861 0
-5482 -5862 0
-5483 -5863 0
-5484 -5864 0
-5485 -5849 0
-5486 -5850 0
-5487 -5851 0
-5488 -5852 0
-5485 -5489 0
-5486 -5490 0
-5487 -5491 0
-5488 -5492 0
-5485 -6137 0
-5486 -6138 0
-5487 -6139 0
-5488 -6140 0
-5489 -5857 0
-5490 -5858 0
-5491 -5859 0
-5492 -5860 0
-5489 -6141 0
-5490 -6142 0
-5491 -6143 0
-5492 -6144 0
-5493 -5689 0
-5494 -5690 0
-5495 -5691 0
-5496 -5692 0
-5493 -5885 0
-5494 -5886 0
-5495 -5887 0
-5496 -5888 0
-5493 -5893 0
-5494 -5894 0
-5495 -5895 0
-5496 -5896 0
-5493 -5913 0
-5494 -5914 0
-5495 -5915 0
-5496 -5916 0
-5493 -5497 0
-5494 -5498 0
-5495 -5499 0
-5496 -5500 0
-5493 -6013 0
-5494 -6014 0
-5495 -6015 0
-5496 -6016 0
-5497 -5533 0
-5498 -5534 0
-5499 -5535 0
-5500 -5536 0
-5497 -5917 0
-5498 -5918 0
-5499 -5919 0
-5500 -5920 0
-5501 -5505 0
-5502 -5506 0
-5503 -5507 0
-5504 -5508 0
-5509 -5513 0
-5510 -5514 0
-5511 -5515 0
-5512 -5516 0
-5509 -5525 0
-5510 -5526 0
-5511 -5527 0
-5512 -5528 0
-5509 -5549 0
-5510 -5550 0
-5511 -5551 0
-5512 -5552 0
-5513 -5517 0
-5514 -5518 0
-5515 -5519 0
-5516 -5520 0
-5513 -5529 0
-5514 -5530 0
-5515 -5531 0
-5516 -5532 0
-5517 -5941 0
-5518 -5942 0
-5519 -5943 0
-5520 -5944 0
-5517 -5521 0
-5518 -5522 0
-5519 -5523 0
-5520 -5524 0
-5517 -5549 0
-5518 -5550 0
-5519 -5551 0
-5520 -5552 0
-5517 -6073 0
-5518 -6074 0
-5519 -6075 0
-5520 -6076 0
-5521 -5945 0
-5522 -5946 0
-5523 -5947 0
-5524 -5948 0
-5525 -6029 0
-5526 -6030 0
-5527 -6031 0
-5528 -6032 0
-5525 -5529 0
-5526 -5530 0
-5527 -5531 0
-5528 -5532 0
-5525 -5533 0
-5526 -5534 0
-5527 -5535 0
-5528 -5536 0
-5529 -5565 0
-5530 -5566 0
-5531 -5567 0
-5532 -5568 0
-5529 -6141 0
-5530 -6142 0
-5531 -6143 0
-5532 -6144 0
-5533 -6033 0
-5534 -6034 0
-5535 -6035 0
-5536 -6036 0
-5533 -5541 0
-5534 -5542 0
-5535 -5543 0
-5536 -5544 0
-5537 -6049 0
-5538 -6050 0
-5539 -6051 0
-5540 -6052 0
-5545 -5549 0
-5546 -5550 0
-5547 -5551 0
-5548 -5552 0
-5545 -5953 0
-5546 -5954 0
-5547 -5955 0
-5548 -5956 0
-5549 -6073 0
-5550 -6074 0
-5551 -6075 0
-5552 -6076 0
-5549 -5717 0
-5550 -5718 0
-5551 -5719 0
-5552 -5720 0
-5553 -5561 0
-5554 -5562 0
-5555 -5563 0
-5556 -5564 0
-5553 -5569 0
-5554 -5570 0
-5555 -5571 0
-5556 -5572 0
-5553 -5753 0
-5554 -5754 0
-5555 -5755 0
-5556 -5756 0
-5557 -5561 0
-5558 -5562 0
-5559 -5563 0
-5560 -5564 0
-5561 -5957 0
-5562 -5958 0
-5563 -5959 0
-5564 -5960 0
-5561 -5585 0
-5562 -5586 0
-5563 -5587 0
-5564 -5588 0
-5561 -5605 0
-5562 -5606 0
-5563 -5607 0
-5564 -5608 0
-5565 -5977 0
-5566 -5978 0
-5567 -5979 0
-5568 -5980 0
-5569 -5649 0
-5570 -5650 0
-5571 -5651 0
-5572 -5652 0
-5581 -5669 0
-5582 -5670 0
-5583 -5671 0
-5584 -5672 0
-5581 -5601 0
-5582 -5602 0
-5583 -5603 0
-5584 -5604 0
-5585 -5989 0
-5586 -5990 0
-5587 -5991 0
-5588 -5992 0
-5589 -6005 0
-5590 -6006 0
-5591 -6007 0
-5592 -6008 0
-5589 -5593 0
-5590 -5594 0
-5591 -5595 0
-5592 -5596 0
-5589 -6105 0
-5590 -6106 0
-5591 -6107 0
-5592 -6108 0
-5589 -5621 0
-5590 -5622 0
-5591 -5623 0
-5592 -5624 0
-5593 -6009 0
-5594 -6010 0
-5595 -6011 0
-5596 -6012 0
-5593 -6053 0
-5594 -6054 0
-5595 -6055 0
-5596 -6056 0
-5593 -5601 0
-5594 -5602 0
-5595 -5603 0
-5596 -5604 0
-5597 -6001 0
-5598 -6002 0
-5599 -6003 0
-5600 -6004 0
-5597 -5629 0
-5598 -5630 0
-5599 -5631 0
-5600 -5632 0
-5601 -5693 0
-5602 -5694 0
-5603 -5695 0
-5604 -5696 0
-5601 -5993 0
-5602 -5994 0
-5603 -5995 0
-5604 -5996 0
-5609 -6025 0
-5610 -6026 0
-5611 -6027 0
-5612 -6028 0
-5609 -5673 0
-5610 -5674 0
-5611 -5675 0
-5612 -5676 0
-5613 -6013 0
-5614 -6014 0
-5615 -6015 0
-5616 -6016 0
-5613 -5721 0
-5614 -5722 0
-5615 -5723 0
-5616 -5724 0
-5613 -5629 0
-5614 -5630 0
-5615 -5631 0
-5616 -5632 0
-5617 -6105 0
-5618 -6106 0
-5619 -6107 0
-5620 -6108 0
-5617 -6001 0
-5618 -6002 0
-5619 -6003 0
-5620 -6004 0
-5617 -5621 0
-5618 -5622 0
-5619 -5623 0
-5620 -5624 0
-5621 -5669 0
-5622 -5670 0
-5623 -5671 0
-5624 -5672 0
-5621 -5949 0
-5622 -5950 0
-5623 -5951 0
-5624 -5952 0
-5621 -5957 0
-5622 -5958 0
-5623 -5959 0
-5624 -5960 0
-5621 -6025 0
-5622 -6026 0
-5623 -6027 0
-5624 -6028 0
-5625 -5637 0
-5626 -5638 0
-5627 -5639 0
-5628 -5640 0
-5625 -6025 0
-5626 -6026 0
-5627 -6027 0
-5628 -6028 0
-5625 -6001 0
-5626 -6002 0
-5627 -6003 0
-5628 -6004 0
-5625 -5629 0
-5626 -5630 0
-5627 -5631 0
-5628 -5632 0
-5633 -5637 0
-5634 -5638 0
-5635 -5639 0
-5636 -5640 0
-5633 -5729 0
-5634 -5730 0
-5635 -5731 0
-5636 -5732 0
-5633 -5733 0
-5634 -5734 0
-5635 -5735 0
-5636 -5736 0
-5637 -5653 0
-5638 -5654 0
-5639 -5655 0
-5640 -5656 0
-5637 -5685 0
-5638 -5686 0
-5639 -5687 0
-5640 -5688 0
-5637 -5745 0
-5638 -5746 0
-5639 -5747 0
-5640 -5748 0
-5637 -5757 0
-5638 -5758 0
-5639 -5759 0
-5640 -5760 0
-5637 -6005 0
-5638 -6006 0
-5639 -6007 0
-5640 -6008 0
-5637 -6013 0
-5638 -6014 0
-5639 -6015 0
-5640 -6016 0
-5641 -5645 0
-5642 -5646 0
-5643 -5647 0
-5644 -5648 0
-5641 -5661 0
-5642 -5662 0
-5643 -5663 0
-5644 -5664 0
-5641 -5689 0
-5642 -5690 0
-5643 -5691 0
-5644 -5692 0
-5641 -5741 0
-5642 -5742 0
-5643 -5743 0
-5644 -5744 0
-5645 -5649 0
-5646 -5650 0
-5647 -5651 0
-5648 -5652 0
-5645 -5665 0
-5646 -5666 0
-5647 -5667 0
-5648 -5668 0
-5645 -5745 0
-5646 -5746 0
-5647 -5747 0
-5648 -5748 0
-5645 -5757 0
-5646 -5758 0
-5647 -5759 0
-5648 -5760 0
-5645 -6125 0
-5646 -6126 0
-5647 -6127 0
-5648 -6128 0
-5649 -5753 0
-5650 -5754 0
-5651 -5755 0
-5652 -5756 0
-5649 -5765 0
-5650 -5766 0
-5651 -5767 0
-5652 -5768 0
-5649 -6025 0
-5650 -6026 0
-5651 -6027 0
-5652 -6028 0
-5653 -5773 0
-5654 -5774 0
-5655 -5775 0
-5656 -5776 0
-5657 -5765 0
-5658 -5766 0
-5659 -5767 0
-5660 -5768 0
-5657 -6025 0
-5658 -6026 0
-5659 -6027 0
-5660 -6028 0
-5661 -5665 0
-5662 -5666 0
-5663 -5667 0
-5664 -5668 0
-5661 -5669 0
-5662 -5670 0
-5663 -5671 0
-5664 -5672 0
-5661 -5769 0
-5662 -5770 0
-5663 -5771 0
-5664 -5772 0
-5661 -5941 0
-5662 -5942 0
-5663 -5943 0
-5664 -5944 0
-5661 -6029 0
-5662 -6030 0
-5663 -6031 0
-5664 -6032 0
-5661 -6089 0
-5662 -6090 0
-5663 -6091 0
-5664 -6092 0
-5665 -5773 0
-5666 -5774 0
-5667 -5775 0
-5668 -5776 0
-5665 -5877 0
-5666 -5878 0
-5667 -5879 0
-5668 -5880 0
-5665 -5945 0
-5666 -5946 0
-5667 -5947 0
-5668 -5948 0
-5665 -6129 0
-5666 -6130 0
-5667 -6131 0
-5668 -6132 0
-5669 -5673 0
-5670 -5674 0
-5671 -5675 0
-5672 -5676 0
-5669 -5693 0
-5670 -5694 0
-5671 -5695 0
-5672 -5696 0
-5669 -5757 0
-5670 -5758 0
-5671 -5759 0
-5672 -5760 0
-5669 -6093 0
-5670 -6094 0
-5671 -6095 0
-5672 -6096 0
-5673 -5957 0
-5674 -5958 0
-5675 -5959 0
-5676 -5960 0
-5673 -6097 0
-5674 -6098 0
-5675 -6099 0
-5676 -6100 0
-5677 -6025 0
-5678 -6026 0
-5679 -6027 0
-5680 -6028 0
-5677 -6029 0
-5678 -6030 0
-5679 -6031 0
-5680 -6032 0
-5677 -5681 0
-5678 -5682 0
-5679 -5683 0
-5680 -5684 0
-5677 -5685 0
-5678 -5686 0
-5679 -5687 0
-5680 -5688 0
-5681 -6021 0
-5682 -6022 0
-5683 -6023 0
-5684 -6024 0
-5685 -5793 0
-5686 -5794 0
-5687 -5795 0
-5688 -5796 0
-5689 -5717 0
-5690 -5718 0
-5691 -5719 0
-5692 -5720 0
-5697 -6045 0
-5698 -6046 0
-5699 -6047 0
-5700 -6048 0
-5701 -5705 0
-5702 -5706 0
-5703 -5707 0
-5704 -5708 0
-5701 -6005 0
-5702 -6006 0
-5703 -6007 0
-5704 -6008 0
-5705 -6009 0
-5706 -6010 0
-5707 -6011 0
-5708 -6012 0
-5709 -5901 0
-5710 -5902 0
-5711 -5903 0
-5712 -5904 0
-5709 -5933 0
-5710 -5934 0
-5711 -5935 0
-5712 -5936 0
-5709 -5813 0
-5710 -5814 0
-5711 -5815 0
-5712 -5816 0
-5713 -6109 0
-5714 -6110 0
-5715 -6111 0
-5716 -6112 0
-5713 -6053 0
-5714 -6054 0
-5715 -6055 0
-5716 -6056 0
-5713 -5953 0
-5714 -5954 0
-5715 -5955 0
-5716 -5956 0
-5713 -5717 0
-5714 -5718 0
-5715 -5719 0
-5716 -5720 0
-5713 -6001 0
-5714 -6002 0
-5715 -6003 0
-5716 -6004 0
-5713 -5745 0
-5714 -5746 0
-5715 -5747 0
-5716 -5748 0
-5717 -5721 0
-5718 -5722 0
-5719 -5723 0
-5720 -5724 0
-5717 -5773 0
-5718 -5774 0
-5719 -5775 0
-5720 -5776 0
-5717 -5961 0
-5718 -5962 0
-5719 -5963 0
-5720 -5964 0
-5721 -5777 0
-5722 -5778 0
-5723 -5779 0
-5724 -5780 0
-5721 -6025 0
-5722 -6026 0
-5723 -6027 0
-5724 -6028 0
-5721 -6045 0
-5722 -6046 0
-5723 -6047 0
-5724 -6048 0
-5725 -5729 0
-5726 -5730 0
-5727 -5731 0
-5728 -5732 0
-5725 -5753 0
-5726 -5754 0
-5727 -5755 0
-5728 -5756 0
-5729 -6149 0
-5730 -6150 0
-5731 -6151 0
-5732 -6152 0
-5729 -5745 0
-5730 -5746 0
-5731 -5747 0
-5732 -5748 0
-5733 -5757 0
-5734 -5758 0
-5735 -5759 0
-5736 -5760 0
-5737 -5761 0
-5738 -5762 0
-5739 -5763 0
-5740 -5764 0
-5737 -6089 0
-5738 -6090 0
-5739 -6091 0
-5740 -6092 0
-5737 -5745 0
-5738 -5746 0
-5739 -5747 0
-5740 -5748 0
-5737 -6137 0
-5738 -6138 0
-5739 -6139 0
-5740 -6140 0
-5741 -5769 0
-5742 -5770 0
-5743 -5771 0
-5744 -5772 0
-5741 -6101 0
-5742 -6102 0
-5743 -6103 0
-5744 -6104 0
-5741 -5745 0
-5742 -5746 0
-5743 -5747 0
-5744 -5748 0
-5745 -6149 0
-5746 -6150 0
-5747 -6151 0
-5748 -6152 0
-5745 -6153 0
-5746 -6154 0
-5747 -6155 0
-5748 -6156 0
-5745 -5749 0
-5746 -5750 0
-5747 -5751 0
-5748 -5752 0
-5745 -5753 0
-5746 -5754 0
-5747 -5755 0
-5748 -5756 0
-5745 -6133 0
-5746 -6134 0
-5747 -6135 0
-5748 -6136 0
-5745 -5773 0
-5746 -5774 0
-5747 -5775 0
-5748 -5776 0
-5745 -5793 0
-5746 -5794 0
-5747 -5795 0
-5748 -5796 0
-5745 -5801 0
-5746 -5802 0
-5747 -5803 0
-5748 -5804 0
-5745 -5837 0
-5746 -5838 0
-5747 -5839 0
-5748 -5840 0
-5745 -5845 0
-5746 -5846 0
-5747 -5847 0
-5748 -5848 0
-5745 -5953 0
-5746 -5954 0
-5747 -5955 0
-5748 -5956 0
-5745 -5957 0
-5746 -5958 0
-5747 -5959 0
-5748 -5960 0
-5745 -5973 0
-5746 -5974 0
-5747 -5975 0
-5748 -5976 0
-5745 -5993 0
-5746 -5994 0
-5747 -5995 0
-5748 -5996 0
-5745 -6021 0
-5746 -6022 0
-5747 -6023 0
-5748 -6024 0
-5745 -6029 0
-5746 -6030 0
-5747 -6031 0
-5748 -6032 0
-5745 -6041 0
-5746 -6042 0
-5747 -6043 0
-5748 -6044 0
-5745 -6045 0
-5746 -6046 0
-5747 -6047 0
-5748 -6048 0
-5745 -6057 0
-5746 -6058 0
-5747 -6059 0
-5748 -6060 0
-5745 -6065 0
-5746 -6066 0
-5747 -6067 0
-5748 -6068 0
-5745 -6089 0
-5746 -6090 0
-5747 -6091 0
-5748 -6092 0
-5745 -6093 0
-5746 -6094 0
-5747 -6095 0
-5748 -6096 0
-5745 -6101 0
-5746 -6102 0
-5747 -6103 0
-5748 -6104 0
-5745 -6105 0
-5746 -6106 0
-5747 -6107 0
-5748 -6108 0
-5745 -6117 0
-5746 -6118 0
-5747 -6119 0
-5748 -6120 0
-5745 -6125 0
-5746 -6126 0
-5747 -6127 0
-5748 -6128 0
-5745 -6141 0
-5746 -6142 0
-5747 -6143 0
-5748 -6144 0
-5749 -5777 0
-5750 -5778 0
-5751 -5779 0
-5752 -5780 0
-5749 -5841 0
-5750 -5842 0
-5751 -5843 0
-5752 -5844 0
-5749 -6069 0
-5750 -6070 0
-5751 -6071 0
-5752 -6072 0
-5749 -6105 0
-5750 -6106 0
-5751 -6107 0
-5752 -6108 0
-5753 -5781 0
-5754 -5782 0
-5755 -5783 0
-5756 -5784 0
-5753 -5849 0
-5754 -5850 0
-5755 -5851 0
-5756 -5852 0
-5753 -6093 0
-5754 -6094 0
-5755 -6095 0
-5756 -6096 0
-5757 -5765 0
-5758 -5766 0
-5759 -5767 0
-5760 -5768 0
-5757 -6057 0
-5758 -6058 0
-5759 -6059 0
-5760 -6060 0
-5757 -5941 0
-5758 -5942 0
-5759 -5943 0
-5760 -5944 0
-5757 -5845 0
-5758 -5846 0
-5759 -5847 0
-5760 -5848 0
-5761 -5765 0
-5762 -5766 0
-5763 -5767 0
-5764 -5768 0
-5761 -5773 0
-5762 -5774 0
-5763 -5775 0
-5764 -5776 0
-5765 -5777 0
-5766 -5778 0
-5767 -5779 0
-5768 -5780 0
-5765 -5849 0
-5766 -5850 0
-5767 -5851 0
-5768 -5852 0
-5769 -5773 0
-5770 -5774 0
-5771 -5775 0
-5772 -5776 0
-5769 -6109 0
-5770 -6110 0
-5771 -6111 0
-5772 -6112 0
-5773 -6145 0
-5774 -6146 0
-5775 -6147 0
-5776 -6148 0
-5773 -6109 0
-5774 -6110 0
-5775 -6111 0
-5776 -6112 0
-5773 -6153 0
-5774 -6154 0
-5775 -6155 0
-5776 -6156 0
-5773 -5777 0
-5774 -5778 0
-5775 -5779 0
-5776 -5780 0
-5773 -5781 0
-5774 -5782 0
-5775 -5783 0
-5776 -5784 0
-5773 -5785 0
-5774 -5786 0
-5775 -5787 0
-5776 -5788 0
-5773 -5797 0
-5774 -5798 0
-5775 -5799 0
-5776 -5800 0
-5773 -5853 0
-5774 -5854 0
-5775 -5855 0
-5776 -5856 0
-5773 -5861 0
-5774 -5862 0
-5775 -5863 0
-5776 -5864 0
-5773 -6157 0
-5774 -6158 0
-5775 -6159 0
-5776 -6160 0
-5773 -5961 0
-5774 -5962 0
-5775 -5963 0
-5776 -5964 0
-5773 -5965 0
-5774 -5966 0
-5775 -5967 0
-5776 -5968 0
-5773 -5977 0
-5774 -5978 0
-5775 -5979 0
-5776 -5980 0
-5773 -5997 0
-5774 -5998 0
-5775 -5999 0
-5776 -6000 0
-5773 -6001 0
-5774 -6002 0
-5775 -6003 0
-5776 -6004 0
-5773 -6033 0
-5774 -6034 0
-5775 -6035 0
-5776 -6036 0
-5773 -6049 0
-5774 -6050 0
-5775 -6051 0
-5776 -6052 0
-5773 -6061 0
-5774 -6062 0
-5775 -6063 0
-5776 -6064 0
-5773 -6073 0
-5774 -6074 0
-5775 -6075 0
-5776 -6076 0
-5773 -6097 0
-5774 -6098 0
-5775 -6099 0
-5776 -6100 0
-5773 -6113 0
-5774 -6114 0
-5775 -6115 0
-5776 -6116 0
-5773 -6121 0
-5774 -6122 0
-5775 -6123 0
-5776 -6124 0
-5773 -6129 0
-5774 -6130 0
-5775 -6131 0
-5776 -6132 0
-5773 -6137 0
-5774 -6138 0
-5775 -6139 0
-5776 -6140 0
-5777 -5857 0
-5778 -5858 0
-5779 -5859 0
-5780 -5860 0
-5777 -6113 0
-5778 -6114 0
-5779 -6115 0
-5780 -6116 0
-5781 -6045 0
-5782 -6046 0
-5783 -6047 0
-5784 -6048 0
-5781 -6097 0
-5782 -6098 0
-5783 -6099 0
-5784 -6100 0
-5781 -6141 0
-5782 -6142 0
-5783 -6143 0
-5784 -6144 0
-5785 -6157 0
-5786 -6158 0
-5787 -6159 0
-5788 -6160 0
-5789 -5821 0
-5790 -5822 0
-5791 -5823 0
-5792 -5824 0
-5793 -5797 0
-5794 -5798 0
-5795 -5799 0
-5796 -5800 0
-5793 -5973 0
-5794 -5974 0
-5795 -5975 0
-5796 -5976 0
-5797 -5977 0
-5798 -5978 0
-5799 -5979 0
-5800 -5980 0
-5797 -6117 0
-5798 -6118 0
-5799 -6119 0
-5800 -6120 0
-5797 -5993 0
-5798 -5994 0
-5799 -5995 0
-5800 -5996 0
-5797 -5877 0
-5798 -5878 0
-5799 -5879 0
-5800 -5880 0
-5801 -5877 0
-5802 -5878 0
-5803 -5879 0
-5804 -5880 0
-5805 -5809 0
-5806 -5810 0
-5807 -5811 0
-5808 -5812 0
-5805 -5817 0
-5806 -5818 0
-5807 -5819 0
-5808 -5820 0
-5809 -5813 0
-5810 -5814 0
-5811 -5815 0
-5812 -5816 0
-5809 -5821 0
-5810 -5822 0
-5811 -5823 0
-5812 -5824 0
-5809 -5825 0
-5810 -5826 0
-5811 -5827 0
-5812 -5828 0
-5809 -6053 0
-5810 -6054 0
-5811 -6055 0
-5812 -6056 0
-5813 -6073 0
-5814 -6074 0
-5815 -6075 0
-5816 -6076 0
-5817 -5821 0
-5818 -5822 0
-5819 -5823 0
-5820 -5824 0
-5817 -5841 0
-5818 -5842 0
-5819 -5843 0
-5820 -5844 0
-5817 -5961 0
-5818 -5962 0
-5819 -5963 0
-5820 -5964 0
-5821 -6045 0
-5822 -6046 0
-5823 -6047 0
-5824 -6048 0
-5825 -5889 0
-5826 -5890 0
-5827 -5891 0
-5828 -5892 0
-5825 -5989 0
-5826 -5990 0
-5827 -5991 0
-5828 -5992 0
-5825 -5993 0
-5826 -5994 0
-5827 -5995 0
-5828 -5996 0
-5829 -6081 0
-5830 -6082 0
-5831 -6083 0
-5832 -6084 0
-5833 -5993 0
-5834 -5994 0
-5835 -5995 0
-5836 -5996 0
-5837 -6053 0
-5838 -6054 0
-5839 -6055 0
-5840 -6056 0
-5837 -6141 0
-5838 -6142 0
-5839 -6143 0
-5840 -6144 0
-5837 -5841 0
-5838 -5842 0
-5839 -5843 0
-5840 -5844 0
-5837 -5853 0
-5838 -5854 0
-5839 -5855 0
-5840 -5856 0
-5837 -5877 0
-5838 -5878 0
-5839 -5879 0
-5840 -5880 0
-5841 -5857 0
-5842 -5858 0
-5843 -5859 0
-5844 -5860 0
-5841 -5977 0
-5842 -5978 0
-5843 -5979 0
-5844 -5980 0
-5841 -6061 0
-5842 -6062 0
-5843 -6063 0
-5844 -6064 0
-5841 -6085 0
-5842 -6086 0
-5843 -6087 0
-5844 -6088 0
-5845 -5849 0
-5846 -5850 0
-5847 -5851 0
-5848 -5852 0
-5845 -5861 0
-5846 -5862 0
-5847 -5863 0
-5848 -5864 0
-5849 -5857 0
-5850 -5858 0
-5851 -5859 0
-5852 -5860 0
-5853 -6145 0
-5854 -6146 0
-5855 -6147 0
-5856 -6148 0
-5853 -5857 0
-5854 -5858 0
-5855 -5859 0
-5856 -5860 0
-5865 -5901 0
-5866 -5902 0
-5867 -5903 0
-5868 -5904 0
-5865 -6069 0
-5866 -6070 0
-5867 -6071 0
-5868 -6072 0
-5869 -6089 0
-5870 -6090 0
-5871 -6091 0
-5872 -6092 0
-5869 -6109 0
-5870 -6110 0
-5871 -6111 0
-5872 -6112 0
-5877 -6073 0
-5878 -6074 0
-5879 -6075 0
-5880 -6076 0
-5877 -6097 0
-5878 -6098 0
-5879 -6099 0
-5880 -6100 0
-5885 -6025 0
-5886 -6026 0
-5887 -6027 0
-5888 -6028 0
-5889 -6129 0
-5890 -6130 0
-5891 -6131 0
-5892 -6132 0
-5893 -6153 0
-5894 -6154 0
-5895 -6155 0
-5896 -6156 0
-5897 -6081 0
-5898 -6082 0
-5899 -6083 0
-5900 -6084 0
-5901 -5909 0
-5902 -5910 0
-5903 -5911 0
-5904 -5912 0
-5901 -5957 0
-5902 -5958 0
-5903 -5959 0
-5904 -5960 0
-5901 -6085 0
-5902 -6086 0
-5903 -6087 0
-5904 -6088 0
-5905 -5909 0
-5906 -5910 0
-5907 -5911 0
-5908 -5912 0
-5905 -5921 0
-5906 -5922 0
-5907 -5923 0
-5908 -5924 0
-5905 -5993 0
-5906 -5994 0
-5907 -5995 0
-5908 -5996 0
-5905 -6109 0
-5906 -6110 0
-5907 -6111 0
-5908 -6112 0
-5909 -5925 0
-5910 -5926 0
-5911 -5927 0
-5912 -5928 0
-5913 -5917 0
-5914 -5918 0
-5915 -5919 0
-5916 -5920 0
-5917 -5921 0
-5918 -5922 0
-5919 -5923 0
-5920 -5924 0
-5917 -6057 0
-5918 -6058 0
-5919 -6059 0
-5920 -6060 0
-5921 -5925 0
-5922 -5926 0
-5923 -5927 0
-5924 -5928 0
-5921 -6061 0
-5922 -6062 0
-5923 -6063 0
-5924 -6064 0
-5929 -5933 0
-5930 -5934 0
-5931 -5935 0
-5932 -5936 0
-5933 -5937 0
-5934 -5938 0
-5935 -5939 0
-5936 -5940 0
-5941 -5945 0
-5942 -5946 0
-5943 -5947 0
-5944 -5948 0
-5945 -5965 0
-5946 -5966 0
-5947 -5967 0
-5948 -5968 0
-5945 -5969 0
-5946 -5970 0
-5947 -5971 0
-5948 -5972 0
-5949 -5985 0
-5950 -5986 0
-5951 -5987 0
-5952 -5988 0
-5949 -6105 0
-5950 -6106 0
-5951 -6107 0
-5952 -6108 0
-5953 -5961 0
-5954 -5962 0
-5955 -5963 0
-5956 -5964 0
-5953 -5973 0
-5954 -5974 0
-5955 -5975 0
-5956 -5976 0
-5957 -5965 0
-5958 -5966 0
-5959 -5967 0
-5960 -5968 0
-5957 -6117 0
-5958 -6118 0
-5959 -6119 0
-5960 -6120 0
-5961 -5977 0
-5962 -5978 0
-5963 -5979 0
-5964 -5980 0
-5965 -6121 0
-5966 -6122 0
-5967 -6123 0
-5968 -6124 0
-5969 -6121 0
-5970 -6122 0
-5971 -6123 0
-5972 -6124 0
-5973 -5977 0
-5974 -5978 0
-5975 -5979 0
-5976 -5980 0
-5981 -5985 0
-5982 -5986 0
-5983 -5987 0
-5984 -5988 0
-5981 -6105 0
-5982 -6106 0
-5983 -6107 0
-5984 -6108 0
-5981 -6013 0
-5982 -6014 0
-5983 -6015 0
-5984 -6016 0
-5985 -6017 0
-5986 -6018 0
-5987 -6019 0
-5988 -6020 0
-5993 -6109 0
-5994 -6110 0
-5995 -6111 0
-5996 -6112 0
-5993 -6121 0
-5994 -6122 0
-5995 -6123 0
-5996 -6124 0
-5993 -5997 0
-5994 -5998 0
-5995 -5999 0
-5996 -6000 0
-6005 -6009 0
-6006 -6010 0
-6007 -6011 0
-6008 -6012 0
-6013 -6017 0
-6014 -6018 0
-6015 -6019 0
-6016 -6020 0
-6013 -6045 0
-6014 -6046 0
-6015 -6047 0
-6016 -6048 0
-6017 -6129 0
-6018 -6130 0
-6019 -6131 0
-6020 -6132 0
-6021 -6053 0
-6022 -6054 0
-6023 -6055 0
-6024 -6056 0
-6029 -6033 0
-6030 -6034 0
-6031 -6035 0
-6032 -6036 0
-6029 -6133 0
-6030 -6134 0
-6031 -6135 0
-6032 -6136 0
-6033 -6137 0
-6034 -6138 0
-6035 -6139 0
-6036 -6140 0
-6037 -6077 0
-6038 -6078 0
-6039 -6079 0
-6040 -6080 0
-6045 -6049 0
-6046 -6050 0
-6047 -6051 0
-6048 -6052 0
-6049 -6141 0
-6050 -6142 0
-6051 -6143 0
-6052 -6144 0
-6053 -6073 0
-6054 -6074 0
-6055 -6075 0
-6056 -6076 0
-6057 -6061 0
-6058 -6062 0
-6059 -6063 0
-6060 -6064 0
-6057 -6117 0
-6058 -6118 0
-6059 -6119 0
-6060 -6120 0
-6061 -6121 0
-6062 -6122 0
-6063 -6123 0
-6064 -6124 0
-6065 -6133 0
-6066 -6134 0
-6067 -6135 0
-6068 -6136 0
-6065 -6069 0
-6066 -6070 0
-6067 -6071 0
-6068 -6072 0
-6065 -6073 0
-6066 -6074 0
-6067 -6075 0
-6068 -6076 0
-6069 -6085 0
-6070 -6086 0
-6071 -6087 0
-6072 -6088 0
-6073 -6137 0
-6074 -6138 0
-6075 -6139 0
-6076 -6140 0
-6089 -6093 0
-6090 -6094 0
-6091 -6095 0
-6092 -6096 0
-6093 -6097 0
-6094 -6098 0
-6095 -6099 0
-6096 -6100 0
-6101 -6105 0
-6102 -6106 0
-6103 -6107 0
-6104 -6108 0
-6101 -6109 0
-6102 -6110 0
-6103 -6111 0
-6104 -6112 0
-6105 -6113 0
-6106 -6114 0
-6107 -6115 0
-6108 -6116 0
-6109 -6113 0
-6110 -6114 0
-6111 -6115 0
-6112 -6116 0
-6109 -6117 0
-6110 -6118 0
-6111 -6119 0
-6112 -6120 0
-6117 -6121 0
-6118 -6122 0
-6119 -6123 0
-6120 -6124 0
-6125 -6141 0
-6126 -6142 0
-6127 -6143 0
-6128 -6144 0
-6125 -6129 0
-6126 -6130 0
-6127 -6131 0
-6128 -6132 0
-6129 -6145 0
-6130 -6146 0
-6131 -6147 0
-6132 -6148 0
-6133 -6137 0
-6134 -6138 0
-6135 -6139 0
-6136 -6140 0
-6137 -6141 0
-6138 -6142 0
-6139 -6143 0
-6140 -6144 0
-6141 -6145 0
-6142 -6146 0
-6143 -6147 0
-6144 -6148 0
-6149 -6153 0
-6150 -6154 0
-6151 -6155 0
-6152 -6156 0
-6153 -6157 0
-6154 -6158 0
-6155 -6159 0
-6156 -6160 0
3037 0
